p cnf 6529 18305
c [[5,1,3]] WMC instance (compact fault encoding)
c p show 1 2 3 4 5 6 7 8 9 10 11 12 13 14 15 16 17 18 19 20 21 22 23 24 25 26 27 28 29 30 31 32 33 34 35 36 37 38 39 40 41 42 43 44 45 46 47 48 49 50 51 52 53 54 55 56 57 58 59 60 61 62 63 64 65 66 67 68 69 70 71 72 73 74 75 76 77 78 79 80 81 82 83 84 85 86 87 88 89 90 91 92 93 94 95 96 97 98 99 100 101 102 103 104 105 106 107 108 109 110 111 112 113 114 115 116 117 118 119 120 121 122 123 124 125 126 127 128 129 130 131 132 133 134 135 136 137 138 139 140 141 142 143 144 145 146 147 148 149 150 151 152 153 154 155 156 157 158 159 160 161 162 163 164 165 166 167 168 169 170 171 172 173 174 175 176 177 178 179 180 181 182 183 184 185 186 187 188 189 190 191 192 193 194 195 196 197 198 199 200 201 202 203 204 205 206 207 208 209 210 211 212 213 214 215 216 217 218 219 220 221 222 223 224 225 226 227 228 229 230 231 232 233 234 235 236 237 238 239 240 241 242 243 244 245 246 247 248 249 250 251 252 253 254 255 256 257 258 259 260 261 262 263 264 265 266 267 268 269 270 271 272 273 274 275 276 277 278 279 280 281 282 283 284 285 286 287 288 289 290 291 292 293 294 295 296 297 298 299 300 301 302 303 304 305 306 307 308 309 310 311 312 313 314 315 316 317 318 319 320 321 322 323 324 325 326 327 328 329 330 331 332 333 334 335 336 337 338 339 340 341 342 343 344 345 346 347 348 349 350 351 352 353 354 355 356 357 358 359 360 361 362 363 364 365 366 367 368 369 370 371 372 373 374 375 376 377 378 379 380 381 382 383 384 385 386 387 388 389 390 391 392 393 394 395 396 397 398 399 400 401 402 403 404 405 406 407 408 409 410 411 412 413 414 415 416 417 418 419 420 421 422 423 424 425 426 427 428 429 430 431 432 433 434 435 436 437 438 439 440 441 442 443 444 445 446 447 448 449 450 451 452 453 454 455 456 457 458 459 460 461 462 463 464 465 466 467 468 469 470 471 472 473 474 475 476 477 478 479 480 481 482 483 484 485 486 487 488 489 490 491 492 493 494 495 496 497 498 499 500 501 502 503 504 505 506 507 508 509 510 511 512 513 514 515 516 517 518 519 520 521 522 523 524 525 526 527 528 529 530 531 532 533 534 535 536 537 538 539 540 541 542 543 544 545 546 547 548 549 550 551 552 553 554 555 556 557 558 559 560 561 562 563 564 565 566 567 568 569 570 571 572 573 574 575 576 577 578 579 580 581 582 583 584 585 586 587 588 589 590 591 592 593 594 595 596 597 598 599 600 601 602 603 604 605 606 607 608 609 610 611 612 613 614 615 616 617 618 619 620 621 622 623 624 625 626 627 628 629 630 631 632 633 634 635 636 637 638 639 640 641 642 643 644 645 646 647 648 649 650 651 652 653 654 655 656 657 658 659 660 661 662 663 664 665 666 667 668 669 670 671 672 673 674 675 676 677 678 679 680 681 682 683 684 685 686 687 688 689 690 691 692 693 694 695 696 697 698 699 700 701 702 703 704 705 706 707 708 709 710 711 712 713 714 715 716 717 718 719 720 721 722 723 724 725 726 727 728 729 730 731 732 733 734 735 736 737 738 739 740 741 742 743 744 745 746 747 748 749 750 751 752 753 754 755 756 757 758 759 760 761 762 763 764 765 766 767 768 769 770 771 772 773 774 775 776 777 778 779 780 781 782 783 784 785 786 787 788 789 790 791 792 793 794 795 796 797 798 799 800 801 802 803 804 805 806 807 808 809 810 811 812 813 814 815 816 817 818 819 820 821 822 823 824 825 826 827 828 829 830 831 832 833 834 835 836 837 838 839 840 841 842 843 844 845 846 847 848 849 850 851 852 853 854 855 856 857 858 859 860 861 862 863 864 865 866 867 868 869 870 871 872 873 874 875 876 877 878 879 880 881 882 883 884 885 886 887 888 889 890 891 892 893 894 895 896 897 898 899 900 901 902 903 904 905 906 907 908 909 910 911 912 913 914 915 916 917 918 919 920 921 922 923 924 925 926 927 928 929 930 931 932 933 934 935 936 937 938 939 940 941 942 943 944 945 946 947 948 949 950 951 952 953 954 955 956 957 958 959 960 961 962 963 964 965 966 967 968 969 970 971 972 973 974 975 976 977 978 979 980 981 982 983 984 985 986 987 988 989 990 991 992 993 994 995 996 997 998 999 1000 1001 1002 1003 1004 1005 1006 1007 1008 1009 1010 1011 1012 1013 1014 1015 1016 1017 1018 1019 1020 1021 1022 1023 1024 1025 1026 1027 1028 1029 1030 1031 1032 1033 1034 1035 1036 1037 1038 1039 1040 1041 1042 1043 1044 1045 1046 1047 1048 1049 1050 1051 1052 1053 1054 1055 1056 1057 1058 1059 1060 1061 1062 1063 1064 1065 1066 1067 1068 1069 1070 1071 1072 1073 1074 1075 1076 1077 1078 1079 1080 1081 1082 1083 1084 1085 1086 1087 1088 1089 1090 1091 1092 1093 1094 1095 1096 1097 1098 1099 1100 1101 1102 1103 1104 1105 1106 1107 1108 1109 1110 1111 1112 1113 1114 1115 1116 1117 1118 1119 1120 1121 1122 1123 1124 1125 1126 1127 1128 1129 1130 1131 1132 1133 1134 1135 1136 1137 1138 1139 1140 1141 1142 1143 1144 1145 1146 1147 1148 1149 1150 1151 1152 1153 1154 1155 1156 1157 1158 1159 1160 1161 1162 1163 1164 1165 1166 1167 1168 1169 1170 1171 1172 1173 1174 1175 1176 1177 1178 1179 1180 1181 1182 1183 1184 1185 1186 1187 1188 1189 1190 1191 1192 1193 1194 1195 1196 1197 1198 1199 1200 1201 1202 1203 1204 1205 1206 1207 1208 1209 1210 1211 1212 1213 1214 1215 1216 1217 1218 1219 1220 1221 1222 1223 1224 1225 1226 1227 1228 1229 1230 1231 1232 1233 1234 1235 1236 1237 1238 1239 1240 1241 1242 1243 1244 1245 1246 1247 1248 1249 1250 1251 1252 1253 1254 1255 1256 1257 1258 1259 1260 1261 1262 1263 1264 1265 1266 1267 1268 1269 1270 1271 1272 1273 1274 1275 1276 1277 1278 1279 1280 1281 1282 1283 1284 1285 1286 1287 1288 1289 1290 1291 1292 1293 1294 1295 1296 1297 1298 1299 1300 1301 1302 1303 1304 1305 1306 1307 1308 1309 1310 1311 1312 1313 1314 1315 1316 1317 1318 1319 1320 1321 1322 1323 1324 1325 1326 1327 1328 1329 1330 1331 1332 1333 1334 1335 1336 1337 1338 1339 1340 1341 1342 1343 1344 1345 1346 1347 1348 1349 1350 1351 1352 1353 1354 1355 1356 1357 1358 1359 1360 1361 1362 1363 1364 1365 1366 1367 1368 1369 1370 1371 1372 1373 1374 1375 1376 1377 1378 1379 1380 1381 1382 1383 1384 1385 1386 1387 1388 1389 1390 1391 1392 1393 1394 1395 1396 1397 1398 1399 1400 1401 1402 1403 1404 1405 1406 1407 1408 1409 1410 1411 1412 1413 1414 1415 1416 1417 1418 1419 1420 1421 1422 1423 1424 1425 1426 1427 1428 1429 1430 1431 1432 1433 1434 1435 1436 1437 1438 1439 1440 1441 1442 1443 1444 1445 1446 1447 1448 1449 1450 1451 1452 1453 1454 1455 1456 1457 1458 1459 1460 1461 1462 1463 1464 1465 1466 1467 1468 1469 1470 1471 1472 1473 1474 1475 1476 1477 1478 1479 1480 1481 1482 1483 1484 1485 1486 1487 1488 1489 1490 1491 1492 1493 1494 1495 1496 1497 1498 1499 1500 1501 1502 1503 1504 1505 1506 1507 1508 1509 1510 1511 1512 1513 1514 1515 1516 1517 1518 1519 1520 1521 1522 1523 1524 1525 1526 1527 1528 1529 1530 1531 1532 1533 1534 1535 1536 1537 1538 1539 1540 1541 1542 1543 1544 1545 1546 1547 1548 1549 1550 1551 1552 1553 1554 1555 1556 1557 1558 1559 1560 1561 1562 1563 1564 1565 1566 1567 1568 1569 1570 1571 1572 1573 1574 1575 1576 1577 1578 1579 1580 1581 1582 1583 1584 1585 1586 1587 1588 1589 1590 1591 1592 1593 1594 1595 1596 1597 1598 1599 1600 1601 1602 1603 1604 1605 1606 1607 1608 1609 1610 1611 1612 1613 1614 1615 1616 1617 1618 1619 1620 1621 1622 1623 1624 1625 1626 1627 1628 1629 1630 1631 1632 1633 1634 1635 1636 1637 1638 1639 1640 1641 1642 1643 1644 1645 1646 1647 1648 1649 1650 1651 1652 1653 1654 1655 1656 1657 1658 1659 1660 1661 1662 1663 1664 1665 1666 1667 1668 1669 1670 1671 1672 1673 1674 1675 1676 1677 1678 1679 1680 1681 1682 1683 1684 1685 1686 1687 1688 1689 1690 1691 1692 1693 1694 1695 1696 1697 1698 1699 1700 1701 1702 1703 1704 1705 1706 1707 1708 1709 1710 1711 1712 1713 1714 1715 1716 1717 1718 1719 1720 1721 1722 1723 1724 1725 1726 1727 1728 1729 1730 1731 1732 1733 1734 1735 1736 1737 1738 1739 1740 1741 1742 1743 1744 1745 1746 1747 1748 1749 1750 1751 1752 1753 1754 1755 1756 1757 1758 1759 1760 1761 1762 1763 1764 1765 1766 1767 1768 1769 1770 1771 1772 1773 1774 1775 1776 1777 1778 1779 1780 1781 1782 1783 1784 1785 1786 1787 1788 1789 1790 1791 1792 1793 1794 1795 1796 1797 1798 1799 1800 1801 1802 1803 1804 1805 1806 1807 1808 1809 1810 1811 1812 1813 1814 1815 1816 1817 1818 1819 1820 1821 1822 1823 1824 1825 1826 1827 1828 1829 1830 1831 1832 1833 1834 1835 1836 1837 1838 1839 1840 1841 1842 1843 1844 1845 1846 1847 1848 1849 1850 1851 1852 1853 1854 1855 1856 1857 1858 1859 1860 1861 1862 1863 1864 1865 1866 1867 1868 1869 1870 1871 1872 1873 1874 1875 1876 1877 1878 1879 1880 1881 1882 1883 1884 1885 1886 1887 1888 1889 1890 1891 1892 1893 1894 1895 1896 1897 1898 1899 1900 1901 1902 1903 1904 1905 1906 1907 1908 1909 1910 1911 1912 1913 1914 1915 1916 1917 1918 1919 1920 1921 1922 1923 1924 1925 1926 1927 1928 1929 1930 1931 1932 1933 1934 1935 1936 1937 1938 1939 1940 1941 1942 1943 1944 1945 1946 1947 1948 1949 1950 1951 1952 1953 1954 1955 1956 1957 1958 1959 1960 1961 1962 1963 1964 1965 1966 1967 1968 1969 1970 1971 1972 1973 1974 1975 1976 1977 1978 1979 1980 1981 1982 1983 1984 1985 1986 1987 1988 1989 1990 1991 1992 1993 1994 1995 1996 1997 1998 1999 2000 2001 2002 2003 2004 2005 2006 2007 2008 2009 2010 2011 2012 2013 2014 2015 2016 2017 2018 2019 2020 2021 2022 2023 2024 2025 2026 2027 2028 2029 2030 2031 2032 2033 2034 2035 2036 2037 2038 2039 2040 2041 2042 2043 2044 2045 2046 2047 2048 2049 2050 2051 2052 2053 2054 2055 2056 2057 2058 2059 2060 2061 2062 2063 2064 2065 2066 2067 2068 2069 2070 2071 2072 2073 2074 2075 2076 2077 2078 2079 2080 2081 2082 2083 2084 2085 2086 2087 2088 2089 2090 2091 2092 2093 2094 2095 2096 2097 2098 2099 2100 2101 2102 2103 2104 2105 2106 2107 2108 2109 2110 2111 2112 2113 2114 2115 2116 2117 2118 2119 2120 2121 2122 2123 2124 2125 2126 2127 2128 2129 2130 2131 2132 2133 2134 2135 2136 2137 2138 2139 2140 2141 2142 2143 2144 2145 2146 2147 2148 2149 2150 2151 2152 2153 2154 2155 2156 2157 2158 2159 2160 2161 2162 2163 2164 2165 2166 2167 2168 2169 2170 2171 2172 2173 2174 2175 2176 2177 2178 2179 2180 2181 2182 2183 2184 2185 2186 2187 2188 2189 2190 2191 2192 2193 2194 2195 2196 2197 2198 2199 2200 2201 2202 2203 2204 2205 2206 2207 2208 2209 2210 2211 2212 2213 2214 2215 2216 2217 2218 2219 2220 2221 2222 2223 2224 2225 2226 2227 2228 2229 2230 2231 2232 2233 2234 2235 2236 2237 2238 2239 2240 2241 2242 2243 2244 2245 2246 2247 2248 2249 2250 2251 2252 2253 2254 2255 2256 2257 2258 2259 2260 2261 2262 2263 2264 2265 2266 2267 2268 2269 2270 2271 2272 2273 2274 2275 2276 2277 2278 2279 2280 2281 2282 2283 2284 2285 2286 2287 2288 2289 2290 2291 2292 2293 2294 2295 2296 2297 2298 2299 2300 2301 2302 2303 2304 2305 2306 2307 2308 2309 2310 2311 2312 2313 2314 2315 2316 2317 2318 2319 2320 2321 2322 2323 2324 2325 2326 2327 2328 2329 2330 2331 2332 2333 2334 2335 2336 2337 2338 2339 2340 2341 2342 2343 2344 2345 2346 2347 2348 2349 2350 2351 2352 2353 2354 2355 2356 2357 2358 2359 2360 2361 2362 2363 2364 2365 2366 2367 2368 2369 2370 2371 2372 2373 2374 2375 2376 2377 2378 2379 2380 2381 2382 2383 2384 2385 2386 2387 2388 2389 2390 2391 2392 2393 2394 2395 2396 2397 2398 2399 2400 2401 2402 2403 2404 2405 2406 2407 2408 2409 2410 2411 2412 2413 2414 2415 2416 2417 2418 2419 2420 2421 2422 2423 2424 2425 2426 2427 2428 2429 2430 2431 2432 2433 2434 2435 2436 2437 2438 2439 2440 2441 2442 2443 2444 2445 2446 2447 2448 2449 2450 2451 2452 2453 2454 2455 2456 2457 2458 2459 2460 2461 2462 2463 2464 2465 2466 2467 2468 2469 2470 2471 2472 2473 2474 2475 2476 2477 2478 2479 2480 2481 2482 2483 2484 2485 2486 2487 2488 2489 2490 2491 2492 2493 2494 2495 2496 2497 2498 2499 2500 2501 2502 2503 2504 2505 2506 2507 2508 2509 2510 2511 2512 2513 2514 2515 2516 2517 2518 2519 2520 2521 2522 2523 2524 2525 2526 2527 2528 2529 2530 2531 2532 2533 2534 2535 2536 2537 2538 2539 2540 2541 2542 2543 2544 2545 2546 2547 2548 2549 2550 2551 2552 2553 2554 2555 2556 2557 2558 2559 2560 2561 2562 2563 2564 2565 2566 2567 2568 2569 2570 2571 2572 2573 2574 2575 2576 2577 2578 2579 2580 2581 2582 2583 2584 2585 2586 2587 2588 2589 2590 2591 2592 2593 2594 2595 2596 2597 2598 2599 2600 2601 2602 2603 2604 2605 2606 2607 2608 2609 2610 2611 2612 2613 2614 2615 2616 2617 2618 2619 2620 2621 2622 2623 2624 2625 2626 2627 2628 2629 2630 2631 2632 2633 2634 2635 2636 2637 2638 2639 2640 2641 2642 2643 2644 2645 2646 2647 2648 2649 2650 2651 2652 2653 2654 2655 2656 2657 2658 2659 2660 2661 2662 2663 2664 2665 2666 2667 2668 2669 2670 2671 2672 2673 2674 2675 2676 2677 2678 2679 2680 2681 2682 2683 2684 2685 2686 2687 2688 2689 2690 2691 2692 2693 2694 2695 2696 2697 2698 2699 2700 2701 2702 2703 2704 2705 2706 2707 2708 2709 2710 2711 2712 2713 2714 2715 2716 2717 2718 2719 2720 2721 2722 2723 2724 2725 2726 2727 2728 2729 2730 2731 2732 2733 2734 2735 2736 2737 2738 2739 2740 2741 2742 2743 2744 2745 2746 2747 2748 2749 2750 2751 2752 2753 2754 2755 2756 2757 2758 2759 2760 2761 2762 2763 2764 2765 2766 2767 2768 2769 2770 2771 2772 2773 2774 2775 2776 2777 2778 2779 2780 2781 2782 2783 2784 2785 2786 2787 2788 2789 2790 2791 2792 2793 2794 2795 2796 2797 2798 2799 2800 2801 2802 2803 2804 2805 2806 2807 2808 2809 2810 2811 2812 2813 2814 2815 2816 2817 2818 2819 2820 2821 2822 2823 2824 2825 2826 2827 2828 2829 2830 2831 2832 2833 2834 2835 2836 2837 2838 2839 2840 2841 2842 2843 2844 2845 2846 2847 2848 2849 2850 2851 2852 2853 2854 2855 2856 2857 2858 2859 2860 2861 2862 2863 2864 2865 2866 2867 2868 2869 2870 2871 2872 2873 2874 2875 2876 2877 2878 2879 2880 2881 2882 2883 2884 2885 2886 2887 2888 2889 2890 2891 2892 2893 2894 2895 2896 2897 2898 2899 2900 2901 2902 2903 2904 2905 2906 2907 2908 2909 2910 2911 2912 2913 2914 2915 2916 2917 2918 2919 2920 2921 2922 2923 2924 2925 2926 2927 2928 2929 2930 2931 2932 2933 2934 2935 2936 2937 2938 2939 2940 2941 2942 2943 2944 2945 2946 2947 2948 2949 2950 2951 2952 2953 2954 2955 2956 2957 2958 2959 2960 2961 2962 2963 2964 2965 2966 2967 2968 2969 2970 2971 2972 2973 2974 2975 2976 2977 2978 2979 2980 2981 2982 2983 2984 2985 2986 2987 2988 2989 2990 2991 2992 2993 2994 2995 2996 2997 2998 2999 3000 3001 3002 3003 3004 3005 3006 3007 3008 3009 3010 3011 3012 3013 3014 3015 3016 3017 3018 3019 3020 3021 3022 3023 3024 3025 3026 3027 3028 3029 3030 3031 3032 3033 3034 3035 3036 3037 3038 3039 3040 3041 3042 3043 3044 3045 3046 3047 3048 3049 3050 3051 3052 3053 3054 3055 3056 3057 3058 3059 3060 3061 3062 3063 3064 3065 3066 3067 3068 3069 3070 3071 3072 3073 3074 3075 3076 3077 3078 3079 3080 3081 3082 3083 3084 3085 3086 3087 3088 3089 3090 3091 3092 3093 3094 3095 3096 3097 3098 3099 3100 3101 3102 3103 3104 3105 3106 3107 3108 3109 3110 3111 3112 3113 3114 3115 3116 3117 3118 3119 3120 3121 3122 3123 3124 3125 3126 3127 3128 3129 3130 3131 3132 3133 3134 3135 3136 3137 3138 3139 3140 3141 3142 3143 3144 3145 3146 3147 3148 3149 3150 3151 3152 3153 3154 3155 3156 3157 3158 3159 3160 3161 3162 3163 3164 3165 3166 3167 3168 3169 3170 3171 3172 3173 3174 3175 3176 3177 3178 3179 3180 3181 3182 3183 3184 3185 3186 3187 3188 3189 3190 3191 3192 3193 3194 3195 3196 3197 3198 3199 3200 3201 3202 3203 3204 3205 3206 3207 3208 3209 3210 3211 3212 3213 3214 3215 3216 3217 3218 3219 3220 3221 3222 3223 3224 3225 3226 3227 3228 3229 3230 3231 3232 3233 3234 3235 3236 3237 3238 3239 3240 3241 3242 3243 3244 3245 3246 3247 3248 3249 3250 3251 3252 3253 3254 3255 3256 3257 3258 3259 3260 3261 3262 3263 3264 0
c p weight 1 1.3333333333333335e-05 0
c p weight -1 0.99998666666666669 0
c p weight 2 1.3333333333333335e-05 0
c p weight -2 0.99998666666666669 0
c p weight 3 1.3333333333333335e-05 0
c p weight -3 0.99998666666666669 0
c p weight 4 1.3333333333333335e-05 0
c p weight -4 0.99998666666666669 0
c p weight 5 1.3333333333333335e-05 0
c p weight -5 0.99998666666666669 0
c p weight 6 1.3333333333333335e-05 0
c p weight -6 0.99998666666666669 0
c p weight 7 1.3333333333333335e-05 0
c p weight -7 0.99998666666666669 0
c p weight 8 1.3333333333333335e-05 0
c p weight -8 0.99998666666666669 0
c p weight 9 1.3333333333333335e-05 0
c p weight -9 0.99998666666666669 0
c p weight 10 1.3333333333333335e-05 0
c p weight -10 0.99998666666666669 0
c p weight 11 1.3333333333333335e-05 0
c p weight -11 0.99998666666666669 0
c p weight 12 1.3333333333333335e-05 0
c p weight -12 0.99998666666666669 0
c p weight 13 1.3333333333333334e-06 0
c p weight -13 0.99997999999999998 0
c p weight 14 1 0
c p weight -14 1 0
c p weight 15 1 0
c p weight -15 1 0
c p weight 16 1 0
c p weight -16 1 0
c p weight 17 1 0
c p weight -17 1 0
c p weight 18 6.6666666666666675e-06 0
c p weight -18 0.99997999999999998 0
c p weight 19 1 0
c p weight -19 1 0
c p weight 20 1 0
c p weight -20 1 0
c p weight 21 6.6666666666666675e-06 0
c p weight -21 0.99997999999999998 0
c p weight 22 1 0
c p weight -22 1 0
c p weight 23 1 0
c p weight -23 1 0
c p weight 24 6.6666666666666675e-06 0
c p weight -24 0.99997999999999998 0
c p weight 25 1 0
c p weight -25 1 0
c p weight 26 1 0
c p weight -26 1 0
c p weight 27 6.6666666666666675e-06 0
c p weight -27 0.99997999999999998 0
c p weight 28 1 0
c p weight -28 1 0
c p weight 29 1 0
c p weight -29 1 0
c p weight 30 6.6666666666666675e-06 0
c p weight -30 0.99997999999999998 0
c p weight 31 1 0
c p weight -31 1 0
c p weight 32 1 0
c p weight -32 1 0
c p weight 33 6.6666666666666675e-06 0
c p weight -33 0.99997999999999998 0
c p weight 34 1 0
c p weight -34 1 0
c p weight 35 1 0
c p weight -35 1 0
c p weight 36 6.6666666666666675e-06 0
c p weight -36 0.99997999999999998 0
c p weight 37 1 0
c p weight -37 1 0
c p weight 38 1 0
c p weight -38 1 0
c p weight 39 6.6666666666666675e-06 0
c p weight -39 0.99997999999999998 0
c p weight 40 1 0
c p weight -40 1 0
c p weight 41 1 0
c p weight -41 1 0
c p weight 42 6.6666666666666675e-06 0
c p weight -42 0.99997999999999998 0
c p weight 43 1 0
c p weight -43 1 0
c p weight 44 1 0
c p weight -44 1 0
c p weight 45 6.6666666666666675e-06 0
c p weight -45 0.99997999999999998 0
c p weight 46 1 0
c p weight -46 1 0
c p weight 47 1 0
c p weight -47 1 0
c p weight 48 6.6666666666666675e-06 0
c p weight -48 0.99997999999999998 0
c p weight 49 1 0
c p weight -49 1 0
c p weight 50 1 0
c p weight -50 1 0
c p weight 51 6.6666666666666675e-06 0
c p weight -51 0.99997999999999998 0
c p weight 52 1 0
c p weight -52 1 0
c p weight 53 1 0
c p weight -53 1 0
c p weight 54 6.6666666666666675e-06 0
c p weight -54 0.99997999999999998 0
c p weight 55 1 0
c p weight -55 1 0
c p weight 56 1 0
c p weight -56 1 0
c p weight 57 6.6666666666666675e-06 0
c p weight -57 0.99997999999999998 0
c p weight 58 1 0
c p weight -58 1 0
c p weight 59 1 0
c p weight -59 1 0
c p weight 60 6.6666666666666675e-06 0
c p weight -60 0.99997999999999998 0
c p weight 61 1 0
c p weight -61 1 0
c p weight 62 1 0
c p weight -62 1 0
c p weight 63 6.6666666666666675e-06 0
c p weight -63 0.99997999999999998 0
c p weight 64 1 0
c p weight -64 1 0
c p weight 65 1 0
c p weight -65 1 0
c p weight 66 6.6666666666666675e-06 0
c p weight -66 0.99997999999999998 0
c p weight 67 1 0
c p weight -67 1 0
c p weight 68 1 0
c p weight -68 1 0
c p weight 69 6.6666666666666675e-06 0
c p weight -69 0.99997999999999998 0
c p weight 70 1 0
c p weight -70 1 0
c p weight 71 1 0
c p weight -71 1 0
c p weight 72 6.6666666666666675e-06 0
c p weight -72 0.99997999999999998 0
c p weight 73 1 0
c p weight -73 1 0
c p weight 74 1 0
c p weight -74 1 0
c p weight 75 1.3333333333333334e-06 0
c p weight -75 0.99997999999999998 0
c p weight 76 1 0
c p weight -76 1 0
c p weight 77 1 0
c p weight -77 1 0
c p weight 78 1 0
c p weight -78 1 0
c p weight 79 1 0
c p weight -79 1 0
c p weight 80 6.6666666666666675e-06 0
c p weight -80 0.99997999999999998 0
c p weight 81 1 0
c p weight -81 1 0
c p weight 82 1 0
c p weight -82 1 0
c p weight 83 6.6666666666666675e-06 0
c p weight -83 0.99997999999999998 0
c p weight 84 1 0
c p weight -84 1 0
c p weight 85 1 0
c p weight -85 1 0
c p weight 86 6.6666666666666675e-06 0
c p weight -86 0.99997999999999998 0
c p weight 87 1 0
c p weight -87 1 0
c p weight 88 1 0
c p weight -88 1 0
c p weight 89 6.6666666666666675e-06 0
c p weight -89 0.99997999999999998 0
c p weight 90 1 0
c p weight -90 1 0
c p weight 91 1 0
c p weight -91 1 0
c p weight 92 6.6666666666666675e-06 0
c p weight -92 0.99997999999999998 0
c p weight 93 1 0
c p weight -93 1 0
c p weight 94 1 0
c p weight -94 1 0
c p weight 95 6.6666666666666675e-06 0
c p weight -95 0.99997999999999998 0
c p weight 96 1 0
c p weight -96 1 0
c p weight 97 1 0
c p weight -97 1 0
c p weight 98 6.6666666666666675e-06 0
c p weight -98 0.99997999999999998 0
c p weight 99 1 0
c p weight -99 1 0
c p weight 100 1 0
c p weight -100 1 0
c p weight 101 6.6666666666666675e-06 0
c p weight -101 0.99997999999999998 0
c p weight 102 1 0
c p weight -102 1 0
c p weight 103 1 0
c p weight -103 1 0
c p weight 104 6.6666666666666675e-06 0
c p weight -104 0.99997999999999998 0
c p weight 105 1 0
c p weight -105 1 0
c p weight 106 1 0
c p weight -106 1 0
c p weight 107 6.6666666666666675e-06 0
c p weight -107 0.99997999999999998 0
c p weight 108 1 0
c p weight -108 1 0
c p weight 109 1 0
c p weight -109 1 0
c p weight 110 6.6666666666666675e-06 0
c p weight -110 0.99997999999999998 0
c p weight 111 1 0
c p weight -111 1 0
c p weight 112 1 0
c p weight -112 1 0
c p weight 113 6.6666666666666675e-06 0
c p weight -113 0.99997999999999998 0
c p weight 114 1 0
c p weight -114 1 0
c p weight 115 1 0
c p weight -115 1 0
c p weight 116 6.6666666666666675e-06 0
c p weight -116 0.99997999999999998 0
c p weight 117 1 0
c p weight -117 1 0
c p weight 118 1 0
c p weight -118 1 0
c p weight 119 6.6666666666666675e-06 0
c p weight -119 0.99997999999999998 0
c p weight 120 1 0
c p weight -120 1 0
c p weight 121 1 0
c p weight -121 1 0
c p weight 122 6.6666666666666675e-06 0
c p weight -122 0.99997999999999998 0
c p weight 123 1 0
c p weight -123 1 0
c p weight 124 1 0
c p weight -124 1 0
c p weight 125 6.6666666666666675e-06 0
c p weight -125 0.99997999999999998 0
c p weight 126 1 0
c p weight -126 1 0
c p weight 127 1 0
c p weight -127 1 0
c p weight 128 6.6666666666666675e-06 0
c p weight -128 0.99997999999999998 0
c p weight 129 1 0
c p weight -129 1 0
c p weight 130 1 0
c p weight -130 1 0
c p weight 131 6.6666666666666675e-06 0
c p weight -131 0.99997999999999998 0
c p weight 132 1 0
c p weight -132 1 0
c p weight 133 1 0
c p weight -133 1 0
c p weight 134 6.6666666666666675e-06 0
c p weight -134 0.99997999999999998 0
c p weight 135 1 0
c p weight -135 1 0
c p weight 136 1 0
c p weight -136 1 0
c p weight 137 1.3333333333333334e-06 0
c p weight -137 0.99997999999999998 0
c p weight 138 1 0
c p weight -138 1 0
c p weight 139 1 0
c p weight -139 1 0
c p weight 140 1 0
c p weight -140 1 0
c p weight 141 1 0
c p weight -141 1 0
c p weight 142 6.6666666666666675e-06 0
c p weight -142 0.99997999999999998 0
c p weight 143 1 0
c p weight -143 1 0
c p weight 144 1 0
c p weight -144 1 0
c p weight 145 6.6666666666666675e-06 0
c p weight -145 0.99997999999999998 0
c p weight 146 1 0
c p weight -146 1 0
c p weight 147 1 0
c p weight -147 1 0
c p weight 148 6.6666666666666675e-06 0
c p weight -148 0.99997999999999998 0
c p weight 149 1 0
c p weight -149 1 0
c p weight 150 1 0
c p weight -150 1 0
c p weight 151 6.6666666666666675e-06 0
c p weight -151 0.99997999999999998 0
c p weight 152 1 0
c p weight -152 1 0
c p weight 153 1 0
c p weight -153 1 0
c p weight 154 6.6666666666666675e-06 0
c p weight -154 0.99997999999999998 0
c p weight 155 1 0
c p weight -155 1 0
c p weight 156 1 0
c p weight -156 1 0
c p weight 157 6.6666666666666675e-06 0
c p weight -157 0.99997999999999998 0
c p weight 158 1 0
c p weight -158 1 0
c p weight 159 1 0
c p weight -159 1 0
c p weight 160 6.6666666666666675e-06 0
c p weight -160 0.99997999999999998 0
c p weight 161 1 0
c p weight -161 1 0
c p weight 162 1 0
c p weight -162 1 0
c p weight 163 6.6666666666666675e-06 0
c p weight -163 0.99997999999999998 0
c p weight 164 1 0
c p weight -164 1 0
c p weight 165 1 0
c p weight -165 1 0
c p weight 166 6.6666666666666675e-06 0
c p weight -166 0.99997999999999998 0
c p weight 167 1 0
c p weight -167 1 0
c p weight 168 1 0
c p weight -168 1 0
c p weight 169 6.6666666666666675e-06 0
c p weight -169 0.99997999999999998 0
c p weight 170 1 0
c p weight -170 1 0
c p weight 171 1 0
c p weight -171 1 0
c p weight 172 6.6666666666666675e-06 0
c p weight -172 0.99997999999999998 0
c p weight 173 1 0
c p weight -173 1 0
c p weight 174 1 0
c p weight -174 1 0
c p weight 175 6.6666666666666675e-06 0
c p weight -175 0.99997999999999998 0
c p weight 176 1 0
c p weight -176 1 0
c p weight 177 1 0
c p weight -177 1 0
c p weight 178 6.6666666666666675e-06 0
c p weight -178 0.99997999999999998 0
c p weight 179 1 0
c p weight -179 1 0
c p weight 180 1 0
c p weight -180 1 0
c p weight 181 6.6666666666666675e-06 0
c p weight -181 0.99997999999999998 0
c p weight 182 1 0
c p weight -182 1 0
c p weight 183 1 0
c p weight -183 1 0
c p weight 184 6.6666666666666675e-06 0
c p weight -184 0.99997999999999998 0
c p weight 185 1 0
c p weight -185 1 0
c p weight 186 1 0
c p weight -186 1 0
c p weight 187 6.6666666666666675e-06 0
c p weight -187 0.99997999999999998 0
c p weight 188 1 0
c p weight -188 1 0
c p weight 189 1 0
c p weight -189 1 0
c p weight 190 6.6666666666666675e-06 0
c p weight -190 0.99997999999999998 0
c p weight 191 1 0
c p weight -191 1 0
c p weight 192 1 0
c p weight -192 1 0
c p weight 193 6.6666666666666675e-06 0
c p weight -193 0.99997999999999998 0
c p weight 194 1 0
c p weight -194 1 0
c p weight 195 1 0
c p weight -195 1 0
c p weight 196 6.6666666666666675e-06 0
c p weight -196 0.99997999999999998 0
c p weight 197 1 0
c p weight -197 1 0
c p weight 198 1 0
c p weight -198 1 0
c p weight 199 1.3333333333333334e-06 0
c p weight -199 0.99997999999999998 0
c p weight 200 1 0
c p weight -200 1 0
c p weight 201 1 0
c p weight -201 1 0
c p weight 202 1 0
c p weight -202 1 0
c p weight 203 1 0
c p weight -203 1 0
c p weight 204 6.6666666666666675e-06 0
c p weight -204 0.99997999999999998 0
c p weight 205 1 0
c p weight -205 1 0
c p weight 206 1 0
c p weight -206 1 0
c p weight 207 6.6666666666666675e-06 0
c p weight -207 0.99997999999999998 0
c p weight 208 1 0
c p weight -208 1 0
c p weight 209 1 0
c p weight -209 1 0
c p weight 210 6.6666666666666675e-06 0
c p weight -210 0.99997999999999998 0
c p weight 211 1 0
c p weight -211 1 0
c p weight 212 1 0
c p weight -212 1 0
c p weight 213 6.6666666666666675e-06 0
c p weight -213 0.99997999999999998 0
c p weight 214 1 0
c p weight -214 1 0
c p weight 215 1 0
c p weight -215 1 0
c p weight 216 6.6666666666666675e-06 0
c p weight -216 0.99997999999999998 0
c p weight 217 1 0
c p weight -217 1 0
c p weight 218 1 0
c p weight -218 1 0
c p weight 219 6.6666666666666675e-06 0
c p weight -219 0.99997999999999998 0
c p weight 220 1 0
c p weight -220 1 0
c p weight 221 1 0
c p weight -221 1 0
c p weight 222 6.6666666666666675e-06 0
c p weight -222 0.99997999999999998 0
c p weight 223 1 0
c p weight -223 1 0
c p weight 224 1 0
c p weight -224 1 0
c p weight 225 6.6666666666666675e-06 0
c p weight -225 0.99997999999999998 0
c p weight 226 1 0
c p weight -226 1 0
c p weight 227 1 0
c p weight -227 1 0
c p weight 228 6.6666666666666675e-06 0
c p weight -228 0.99997999999999998 0
c p weight 229 1 0
c p weight -229 1 0
c p weight 230 1 0
c p weight -230 1 0
c p weight 231 6.6666666666666675e-06 0
c p weight -231 0.99997999999999998 0
c p weight 232 1 0
c p weight -232 1 0
c p weight 233 1 0
c p weight -233 1 0
c p weight 234 6.6666666666666675e-06 0
c p weight -234 0.99997999999999998 0
c p weight 235 1 0
c p weight -235 1 0
c p weight 236 1 0
c p weight -236 1 0
c p weight 237 6.6666666666666675e-06 0
c p weight -237 0.99997999999999998 0
c p weight 238 1 0
c p weight -238 1 0
c p weight 239 1 0
c p weight -239 1 0
c p weight 240 6.6666666666666675e-06 0
c p weight -240 0.99997999999999998 0
c p weight 241 1 0
c p weight -241 1 0
c p weight 242 1 0
c p weight -242 1 0
c p weight 243 6.6666666666666675e-06 0
c p weight -243 0.99997999999999998 0
c p weight 244 1 0
c p weight -244 1 0
c p weight 245 1 0
c p weight -245 1 0
c p weight 246 6.6666666666666675e-06 0
c p weight -246 0.99997999999999998 0
c p weight 247 1 0
c p weight -247 1 0
c p weight 248 1 0
c p weight -248 1 0
c p weight 249 6.6666666666666675e-06 0
c p weight -249 0.99997999999999998 0
c p weight 250 1 0
c p weight -250 1 0
c p weight 251 1 0
c p weight -251 1 0
c p weight 252 6.6666666666666675e-06 0
c p weight -252 0.99997999999999998 0
c p weight 253 1 0
c p weight -253 1 0
c p weight 254 1 0
c p weight -254 1 0
c p weight 255 6.6666666666666675e-06 0
c p weight -255 0.99997999999999998 0
c p weight 256 1 0
c p weight -256 1 0
c p weight 257 1 0
c p weight -257 1 0
c p weight 258 6.6666666666666675e-06 0
c p weight -258 0.99997999999999998 0
c p weight 259 1 0
c p weight -259 1 0
c p weight 260 1 0
c p weight -260 1 0
c p weight 261 1.3333333333333334e-06 0
c p weight -261 0.99997999999999998 0
c p weight 262 1 0
c p weight -262 1 0
c p weight 263 1 0
c p weight -263 1 0
c p weight 264 1 0
c p weight -264 1 0
c p weight 265 1 0
c p weight -265 1 0
c p weight 266 6.6666666666666675e-06 0
c p weight -266 0.99997999999999998 0
c p weight 267 1 0
c p weight -267 1 0
c p weight 268 1 0
c p weight -268 1 0
c p weight 269 6.6666666666666675e-06 0
c p weight -269 0.99997999999999998 0
c p weight 270 1 0
c p weight -270 1 0
c p weight 271 1 0
c p weight -271 1 0
c p weight 272 6.6666666666666675e-06 0
c p weight -272 0.99997999999999998 0
c p weight 273 1 0
c p weight -273 1 0
c p weight 274 1 0
c p weight -274 1 0
c p weight 275 6.6666666666666675e-06 0
c p weight -275 0.99997999999999998 0
c p weight 276 1 0
c p weight -276 1 0
c p weight 277 1 0
c p weight -277 1 0
c p weight 278 6.6666666666666675e-06 0
c p weight -278 0.99997999999999998 0
c p weight 279 1 0
c p weight -279 1 0
c p weight 280 1 0
c p weight -280 1 0
c p weight 281 6.6666666666666675e-06 0
c p weight -281 0.99997999999999998 0
c p weight 282 1 0
c p weight -282 1 0
c p weight 283 1 0
c p weight -283 1 0
c p weight 284 6.6666666666666675e-06 0
c p weight -284 0.99997999999999998 0
c p weight 285 1 0
c p weight -285 1 0
c p weight 286 1 0
c p weight -286 1 0
c p weight 287 6.6666666666666675e-06 0
c p weight -287 0.99997999999999998 0
c p weight 288 1 0
c p weight -288 1 0
c p weight 289 1 0
c p weight -289 1 0
c p weight 290 6.6666666666666675e-06 0
c p weight -290 0.99997999999999998 0
c p weight 291 1 0
c p weight -291 1 0
c p weight 292 1 0
c p weight -292 1 0
c p weight 293 6.6666666666666675e-06 0
c p weight -293 0.99997999999999998 0
c p weight 294 1 0
c p weight -294 1 0
c p weight 295 1 0
c p weight -295 1 0
c p weight 296 6.6666666666666675e-06 0
c p weight -296 0.99997999999999998 0
c p weight 297 1 0
c p weight -297 1 0
c p weight 298 1 0
c p weight -298 1 0
c p weight 299 6.6666666666666675e-06 0
c p weight -299 0.99997999999999998 0
c p weight 300 1 0
c p weight -300 1 0
c p weight 301 1 0
c p weight -301 1 0
c p weight 302 6.6666666666666675e-06 0
c p weight -302 0.99997999999999998 0
c p weight 303 1 0
c p weight -303 1 0
c p weight 304 1 0
c p weight -304 1 0
c p weight 305 6.6666666666666675e-06 0
c p weight -305 0.99997999999999998 0
c p weight 306 1 0
c p weight -306 1 0
c p weight 307 1 0
c p weight -307 1 0
c p weight 308 6.6666666666666675e-06 0
c p weight -308 0.99997999999999998 0
c p weight 309 1 0
c p weight -309 1 0
c p weight 310 1 0
c p weight -310 1 0
c p weight 311 6.6666666666666675e-06 0
c p weight -311 0.99997999999999998 0
c p weight 312 1 0
c p weight -312 1 0
c p weight 313 1 0
c p weight -313 1 0
c p weight 314 6.6666666666666675e-06 0
c p weight -314 0.99997999999999998 0
c p weight 315 1 0
c p weight -315 1 0
c p weight 316 1 0
c p weight -316 1 0
c p weight 317 6.6666666666666675e-06 0
c p weight -317 0.99997999999999998 0
c p weight 318 1 0
c p weight -318 1 0
c p weight 319 1 0
c p weight -319 1 0
c p weight 320 6.6666666666666675e-06 0
c p weight -320 0.99997999999999998 0
c p weight 321 1 0
c p weight -321 1 0
c p weight 322 1 0
c p weight -322 1 0
c p weight 323 1.3333333333333334e-06 0
c p weight -323 0.99997999999999998 0
c p weight 324 1 0
c p weight -324 1 0
c p weight 325 1 0
c p weight -325 1 0
c p weight 326 1 0
c p weight -326 1 0
c p weight 327 1 0
c p weight -327 1 0
c p weight 328 6.6666666666666675e-06 0
c p weight -328 0.99997999999999998 0
c p weight 329 1 0
c p weight -329 1 0
c p weight 330 1 0
c p weight -330 1 0
c p weight 331 6.6666666666666675e-06 0
c p weight -331 0.99997999999999998 0
c p weight 332 1 0
c p weight -332 1 0
c p weight 333 1 0
c p weight -333 1 0
c p weight 334 6.6666666666666675e-06 0
c p weight -334 0.99997999999999998 0
c p weight 335 1 0
c p weight -335 1 0
c p weight 336 1 0
c p weight -336 1 0
c p weight 337 6.6666666666666675e-06 0
c p weight -337 0.99997999999999998 0
c p weight 338 1 0
c p weight -338 1 0
c p weight 339 1 0
c p weight -339 1 0
c p weight 340 6.6666666666666675e-06 0
c p weight -340 0.99997999999999998 0
c p weight 341 1 0
c p weight -341 1 0
c p weight 342 1 0
c p weight -342 1 0
c p weight 343 6.6666666666666675e-06 0
c p weight -343 0.99997999999999998 0
c p weight 344 1 0
c p weight -344 1 0
c p weight 345 1 0
c p weight -345 1 0
c p weight 346 6.6666666666666675e-06 0
c p weight -346 0.99997999999999998 0
c p weight 347 1 0
c p weight -347 1 0
c p weight 348 1 0
c p weight -348 1 0
c p weight 349 6.6666666666666675e-06 0
c p weight -349 0.99997999999999998 0
c p weight 350 1 0
c p weight -350 1 0
c p weight 351 1 0
c p weight -351 1 0
c p weight 352 6.6666666666666675e-06 0
c p weight -352 0.99997999999999998 0
c p weight 353 1 0
c p weight -353 1 0
c p weight 354 1 0
c p weight -354 1 0
c p weight 355 6.6666666666666675e-06 0
c p weight -355 0.99997999999999998 0
c p weight 356 1 0
c p weight -356 1 0
c p weight 357 1 0
c p weight -357 1 0
c p weight 358 6.6666666666666675e-06 0
c p weight -358 0.99997999999999998 0
c p weight 359 1 0
c p weight -359 1 0
c p weight 360 1 0
c p weight -360 1 0
c p weight 361 6.6666666666666675e-06 0
c p weight -361 0.99997999999999998 0
c p weight 362 1 0
c p weight -362 1 0
c p weight 363 1 0
c p weight -363 1 0
c p weight 364 6.6666666666666675e-06 0
c p weight -364 0.99997999999999998 0
c p weight 365 1 0
c p weight -365 1 0
c p weight 366 1 0
c p weight -366 1 0
c p weight 367 6.6666666666666675e-06 0
c p weight -367 0.99997999999999998 0
c p weight 368 1 0
c p weight -368 1 0
c p weight 369 1 0
c p weight -369 1 0
c p weight 370 6.6666666666666675e-06 0
c p weight -370 0.99997999999999998 0
c p weight 371 1 0
c p weight -371 1 0
c p weight 372 1 0
c p weight -372 1 0
c p weight 373 6.6666666666666675e-06 0
c p weight -373 0.99997999999999998 0
c p weight 374 1 0
c p weight -374 1 0
c p weight 375 1 0
c p weight -375 1 0
c p weight 376 6.6666666666666675e-06 0
c p weight -376 0.99997999999999998 0
c p weight 377 1 0
c p weight -377 1 0
c p weight 378 1 0
c p weight -378 1 0
c p weight 379 6.6666666666666675e-06 0
c p weight -379 0.99997999999999998 0
c p weight 380 1 0
c p weight -380 1 0
c p weight 381 1 0
c p weight -381 1 0
c p weight 382 6.6666666666666675e-06 0
c p weight -382 0.99997999999999998 0
c p weight 383 1 0
c p weight -383 1 0
c p weight 384 1 0
c p weight -384 1 0
c p weight 385 1.3333333333333334e-06 0
c p weight -385 0.99997999999999998 0
c p weight 386 1 0
c p weight -386 1 0
c p weight 387 1 0
c p weight -387 1 0
c p weight 388 1 0
c p weight -388 1 0
c p weight 389 1 0
c p weight -389 1 0
c p weight 390 6.6666666666666675e-06 0
c p weight -390 0.99997999999999998 0
c p weight 391 1 0
c p weight -391 1 0
c p weight 392 1 0
c p weight -392 1 0
c p weight 393 6.6666666666666675e-06 0
c p weight -393 0.99997999999999998 0
c p weight 394 1 0
c p weight -394 1 0
c p weight 395 1 0
c p weight -395 1 0
c p weight 396 6.6666666666666675e-06 0
c p weight -396 0.99997999999999998 0
c p weight 397 1 0
c p weight -397 1 0
c p weight 398 1 0
c p weight -398 1 0
c p weight 399 6.6666666666666675e-06 0
c p weight -399 0.99997999999999998 0
c p weight 400 1 0
c p weight -400 1 0
c p weight 401 1 0
c p weight -401 1 0
c p weight 402 6.6666666666666675e-06 0
c p weight -402 0.99997999999999998 0
c p weight 403 1 0
c p weight -403 1 0
c p weight 404 1 0
c p weight -404 1 0
c p weight 405 6.6666666666666675e-06 0
c p weight -405 0.99997999999999998 0
c p weight 406 1 0
c p weight -406 1 0
c p weight 407 1 0
c p weight -407 1 0
c p weight 408 6.6666666666666675e-06 0
c p weight -408 0.99997999999999998 0
c p weight 409 1 0
c p weight -409 1 0
c p weight 410 1 0
c p weight -410 1 0
c p weight 411 6.6666666666666675e-06 0
c p weight -411 0.99997999999999998 0
c p weight 412 1 0
c p weight -412 1 0
c p weight 413 1 0
c p weight -413 1 0
c p weight 414 6.6666666666666675e-06 0
c p weight -414 0.99997999999999998 0
c p weight 415 1 0
c p weight -415 1 0
c p weight 416 1 0
c p weight -416 1 0
c p weight 417 6.6666666666666675e-06 0
c p weight -417 0.99997999999999998 0
c p weight 418 1 0
c p weight -418 1 0
c p weight 419 1 0
c p weight -419 1 0
c p weight 420 6.6666666666666675e-06 0
c p weight -420 0.99997999999999998 0
c p weight 421 1 0
c p weight -421 1 0
c p weight 422 1 0
c p weight -422 1 0
c p weight 423 6.6666666666666675e-06 0
c p weight -423 0.99997999999999998 0
c p weight 424 1 0
c p weight -424 1 0
c p weight 425 1 0
c p weight -425 1 0
c p weight 426 6.6666666666666675e-06 0
c p weight -426 0.99997999999999998 0
c p weight 427 1 0
c p weight -427 1 0
c p weight 428 1 0
c p weight -428 1 0
c p weight 429 6.6666666666666675e-06 0
c p weight -429 0.99997999999999998 0
c p weight 430 1 0
c p weight -430 1 0
c p weight 431 1 0
c p weight -431 1 0
c p weight 432 6.6666666666666675e-06 0
c p weight -432 0.99997999999999998 0
c p weight 433 1 0
c p weight -433 1 0
c p weight 434 1 0
c p weight -434 1 0
c p weight 435 6.6666666666666675e-06 0
c p weight -435 0.99997999999999998 0
c p weight 436 1 0
c p weight -436 1 0
c p weight 437 1 0
c p weight -437 1 0
c p weight 438 6.6666666666666675e-06 0
c p weight -438 0.99997999999999998 0
c p weight 439 1 0
c p weight -439 1 0
c p weight 440 1 0
c p weight -440 1 0
c p weight 441 6.6666666666666675e-06 0
c p weight -441 0.99997999999999998 0
c p weight 442 1 0
c p weight -442 1 0
c p weight 443 1 0
c p weight -443 1 0
c p weight 444 6.6666666666666675e-06 0
c p weight -444 0.99997999999999998 0
c p weight 445 1 0
c p weight -445 1 0
c p weight 446 1 0
c p weight -446 1 0
c p weight 447 1.3333333333333334e-06 0
c p weight -447 0.99997999999999998 0
c p weight 448 1 0
c p weight -448 1 0
c p weight 449 1 0
c p weight -449 1 0
c p weight 450 1 0
c p weight -450 1 0
c p weight 451 1 0
c p weight -451 1 0
c p weight 452 6.6666666666666675e-06 0
c p weight -452 0.99997999999999998 0
c p weight 453 1 0
c p weight -453 1 0
c p weight 454 1 0
c p weight -454 1 0
c p weight 455 6.6666666666666675e-06 0
c p weight -455 0.99997999999999998 0
c p weight 456 1 0
c p weight -456 1 0
c p weight 457 1 0
c p weight -457 1 0
c p weight 458 6.6666666666666675e-06 0
c p weight -458 0.99997999999999998 0
c p weight 459 1 0
c p weight -459 1 0
c p weight 460 1 0
c p weight -460 1 0
c p weight 461 6.6666666666666675e-06 0
c p weight -461 0.99997999999999998 0
c p weight 462 1 0
c p weight -462 1 0
c p weight 463 1 0
c p weight -463 1 0
c p weight 464 6.6666666666666675e-06 0
c p weight -464 0.99997999999999998 0
c p weight 465 1 0
c p weight -465 1 0
c p weight 466 1 0
c p weight -466 1 0
c p weight 467 6.6666666666666675e-06 0
c p weight -467 0.99997999999999998 0
c p weight 468 1 0
c p weight -468 1 0
c p weight 469 1 0
c p weight -469 1 0
c p weight 470 6.6666666666666675e-06 0
c p weight -470 0.99997999999999998 0
c p weight 471 1 0
c p weight -471 1 0
c p weight 472 1 0
c p weight -472 1 0
c p weight 473 6.6666666666666675e-06 0
c p weight -473 0.99997999999999998 0
c p weight 474 1 0
c p weight -474 1 0
c p weight 475 1 0
c p weight -475 1 0
c p weight 476 6.6666666666666675e-06 0
c p weight -476 0.99997999999999998 0
c p weight 477 1 0
c p weight -477 1 0
c p weight 478 1 0
c p weight -478 1 0
c p weight 479 6.6666666666666675e-06 0
c p weight -479 0.99997999999999998 0
c p weight 480 1 0
c p weight -480 1 0
c p weight 481 1 0
c p weight -481 1 0
c p weight 482 6.6666666666666675e-06 0
c p weight -482 0.99997999999999998 0
c p weight 483 1 0
c p weight -483 1 0
c p weight 484 1 0
c p weight -484 1 0
c p weight 485 6.6666666666666675e-06 0
c p weight -485 0.99997999999999998 0
c p weight 486 1 0
c p weight -486 1 0
c p weight 487 1 0
c p weight -487 1 0
c p weight 488 6.6666666666666675e-06 0
c p weight -488 0.99997999999999998 0
c p weight 489 1 0
c p weight -489 1 0
c p weight 490 1 0
c p weight -490 1 0
c p weight 491 6.6666666666666675e-06 0
c p weight -491 0.99997999999999998 0
c p weight 492 1 0
c p weight -492 1 0
c p weight 493 1 0
c p weight -493 1 0
c p weight 494 6.6666666666666675e-06 0
c p weight -494 0.99997999999999998 0
c p weight 495 1 0
c p weight -495 1 0
c p weight 496 1 0
c p weight -496 1 0
c p weight 497 6.6666666666666675e-06 0
c p weight -497 0.99997999999999998 0
c p weight 498 1 0
c p weight -498 1 0
c p weight 499 1 0
c p weight -499 1 0
c p weight 500 6.6666666666666675e-06 0
c p weight -500 0.99997999999999998 0
c p weight 501 1 0
c p weight -501 1 0
c p weight 502 1 0
c p weight -502 1 0
c p weight 503 6.6666666666666675e-06 0
c p weight -503 0.99997999999999998 0
c p weight 504 1 0
c p weight -504 1 0
c p weight 505 1 0
c p weight -505 1 0
c p weight 506 6.6666666666666675e-06 0
c p weight -506 0.99997999999999998 0
c p weight 507 1 0
c p weight -507 1 0
c p weight 508 1 0
c p weight -508 1 0
c p weight 509 1.3333333333333334e-06 0
c p weight -509 0.99997999999999998 0
c p weight 510 1 0
c p weight -510 1 0
c p weight 511 1 0
c p weight -511 1 0
c p weight 512 1 0
c p weight -512 1 0
c p weight 513 1 0
c p weight -513 1 0
c p weight 514 6.6666666666666675e-06 0
c p weight -514 0.99997999999999998 0
c p weight 515 1 0
c p weight -515 1 0
c p weight 516 1 0
c p weight -516 1 0
c p weight 517 6.6666666666666675e-06 0
c p weight -517 0.99997999999999998 0
c p weight 518 1 0
c p weight -518 1 0
c p weight 519 1 0
c p weight -519 1 0
c p weight 520 6.6666666666666675e-06 0
c p weight -520 0.99997999999999998 0
c p weight 521 1 0
c p weight -521 1 0
c p weight 522 1 0
c p weight -522 1 0
c p weight 523 6.6666666666666675e-06 0
c p weight -523 0.99997999999999998 0
c p weight 524 1 0
c p weight -524 1 0
c p weight 525 1 0
c p weight -525 1 0
c p weight 526 6.6666666666666675e-06 0
c p weight -526 0.99997999999999998 0
c p weight 527 1 0
c p weight -527 1 0
c p weight 528 1 0
c p weight -528 1 0
c p weight 529 6.6666666666666675e-06 0
c p weight -529 0.99997999999999998 0
c p weight 530 1 0
c p weight -530 1 0
c p weight 531 1 0
c p weight -531 1 0
c p weight 532 6.6666666666666675e-06 0
c p weight -532 0.99997999999999998 0
c p weight 533 1 0
c p weight -533 1 0
c p weight 534 1 0
c p weight -534 1 0
c p weight 535 6.6666666666666675e-06 0
c p weight -535 0.99997999999999998 0
c p weight 536 1 0
c p weight -536 1 0
c p weight 537 1 0
c p weight -537 1 0
c p weight 538 6.6666666666666675e-06 0
c p weight -538 0.99997999999999998 0
c p weight 539 1 0
c p weight -539 1 0
c p weight 540 1 0
c p weight -540 1 0
c p weight 541 6.6666666666666675e-06 0
c p weight -541 0.99997999999999998 0
c p weight 542 1 0
c p weight -542 1 0
c p weight 543 1 0
c p weight -543 1 0
c p weight 544 6.6666666666666675e-06 0
c p weight -544 0.99997999999999998 0
c p weight 545 1 0
c p weight -545 1 0
c p weight 546 1 0
c p weight -546 1 0
c p weight 547 6.6666666666666675e-06 0
c p weight -547 0.99997999999999998 0
c p weight 548 1 0
c p weight -548 1 0
c p weight 549 1 0
c p weight -549 1 0
c p weight 550 6.6666666666666675e-06 0
c p weight -550 0.99997999999999998 0
c p weight 551 1 0
c p weight -551 1 0
c p weight 552 1 0
c p weight -552 1 0
c p weight 553 6.6666666666666675e-06 0
c p weight -553 0.99997999999999998 0
c p weight 554 1 0
c p weight -554 1 0
c p weight 555 1 0
c p weight -555 1 0
c p weight 556 6.6666666666666675e-06 0
c p weight -556 0.99997999999999998 0
c p weight 557 1 0
c p weight -557 1 0
c p weight 558 1 0
c p weight -558 1 0
c p weight 559 6.6666666666666675e-06 0
c p weight -559 0.99997999999999998 0
c p weight 560 1 0
c p weight -560 1 0
c p weight 561 1 0
c p weight -561 1 0
c p weight 562 6.6666666666666675e-06 0
c p weight -562 0.99997999999999998 0
c p weight 563 1 0
c p weight -563 1 0
c p weight 564 1 0
c p weight -564 1 0
c p weight 565 6.6666666666666675e-06 0
c p weight -565 0.99997999999999998 0
c p weight 566 1 0
c p weight -566 1 0
c p weight 567 1 0
c p weight -567 1 0
c p weight 568 6.6666666666666675e-06 0
c p weight -568 0.99997999999999998 0
c p weight 569 1 0
c p weight -569 1 0
c p weight 570 1 0
c p weight -570 1 0
c p weight 571 1.3333333333333334e-06 0
c p weight -571 0.99997999999999998 0
c p weight 572 1 0
c p weight -572 1 0
c p weight 573 1 0
c p weight -573 1 0
c p weight 574 1 0
c p weight -574 1 0
c p weight 575 1 0
c p weight -575 1 0
c p weight 576 6.6666666666666675e-06 0
c p weight -576 0.99997999999999998 0
c p weight 577 1 0
c p weight -577 1 0
c p weight 578 1 0
c p weight -578 1 0
c p weight 579 6.6666666666666675e-06 0
c p weight -579 0.99997999999999998 0
c p weight 580 1 0
c p weight -580 1 0
c p weight 581 1 0
c p weight -581 1 0
c p weight 582 6.6666666666666675e-06 0
c p weight -582 0.99997999999999998 0
c p weight 583 1 0
c p weight -583 1 0
c p weight 584 1 0
c p weight -584 1 0
c p weight 585 6.6666666666666675e-06 0
c p weight -585 0.99997999999999998 0
c p weight 586 1 0
c p weight -586 1 0
c p weight 587 1 0
c p weight -587 1 0
c p weight 588 6.6666666666666675e-06 0
c p weight -588 0.99997999999999998 0
c p weight 589 1 0
c p weight -589 1 0
c p weight 590 1 0
c p weight -590 1 0
c p weight 591 6.6666666666666675e-06 0
c p weight -591 0.99997999999999998 0
c p weight 592 1 0
c p weight -592 1 0
c p weight 593 1 0
c p weight -593 1 0
c p weight 594 6.6666666666666675e-06 0
c p weight -594 0.99997999999999998 0
c p weight 595 1 0
c p weight -595 1 0
c p weight 596 1 0
c p weight -596 1 0
c p weight 597 6.6666666666666675e-06 0
c p weight -597 0.99997999999999998 0
c p weight 598 1 0
c p weight -598 1 0
c p weight 599 1 0
c p weight -599 1 0
c p weight 600 6.6666666666666675e-06 0
c p weight -600 0.99997999999999998 0
c p weight 601 1 0
c p weight -601 1 0
c p weight 602 1 0
c p weight -602 1 0
c p weight 603 6.6666666666666675e-06 0
c p weight -603 0.99997999999999998 0
c p weight 604 1 0
c p weight -604 1 0
c p weight 605 1 0
c p weight -605 1 0
c p weight 606 6.6666666666666675e-06 0
c p weight -606 0.99997999999999998 0
c p weight 607 1 0
c p weight -607 1 0
c p weight 608 1 0
c p weight -608 1 0
c p weight 609 6.6666666666666675e-06 0
c p weight -609 0.99997999999999998 0
c p weight 610 1 0
c p weight -610 1 0
c p weight 611 1 0
c p weight -611 1 0
c p weight 612 6.6666666666666675e-06 0
c p weight -612 0.99997999999999998 0
c p weight 613 1 0
c p weight -613 1 0
c p weight 614 1 0
c p weight -614 1 0
c p weight 615 6.6666666666666675e-06 0
c p weight -615 0.99997999999999998 0
c p weight 616 1 0
c p weight -616 1 0
c p weight 617 1 0
c p weight -617 1 0
c p weight 618 6.6666666666666675e-06 0
c p weight -618 0.99997999999999998 0
c p weight 619 1 0
c p weight -619 1 0
c p weight 620 1 0
c p weight -620 1 0
c p weight 621 6.6666666666666675e-06 0
c p weight -621 0.99997999999999998 0
c p weight 622 1 0
c p weight -622 1 0
c p weight 623 1 0
c p weight -623 1 0
c p weight 624 6.6666666666666675e-06 0
c p weight -624 0.99997999999999998 0
c p weight 625 1 0
c p weight -625 1 0
c p weight 626 1 0
c p weight -626 1 0
c p weight 627 6.6666666666666675e-06 0
c p weight -627 0.99997999999999998 0
c p weight 628 1 0
c p weight -628 1 0
c p weight 629 1 0
c p weight -629 1 0
c p weight 630 6.6666666666666675e-06 0
c p weight -630 0.99997999999999998 0
c p weight 631 1 0
c p weight -631 1 0
c p weight 632 1 0
c p weight -632 1 0
c p weight 633 1.3333333333333334e-06 0
c p weight -633 0.99997999999999998 0
c p weight 634 1 0
c p weight -634 1 0
c p weight 635 1 0
c p weight -635 1 0
c p weight 636 1 0
c p weight -636 1 0
c p weight 637 1 0
c p weight -637 1 0
c p weight 638 6.6666666666666675e-06 0
c p weight -638 0.99997999999999998 0
c p weight 639 1 0
c p weight -639 1 0
c p weight 640 1 0
c p weight -640 1 0
c p weight 641 6.6666666666666675e-06 0
c p weight -641 0.99997999999999998 0
c p weight 642 1 0
c p weight -642 1 0
c p weight 643 1 0
c p weight -643 1 0
c p weight 644 6.6666666666666675e-06 0
c p weight -644 0.99997999999999998 0
c p weight 645 1 0
c p weight -645 1 0
c p weight 646 1 0
c p weight -646 1 0
c p weight 647 6.6666666666666675e-06 0
c p weight -647 0.99997999999999998 0
c p weight 648 1 0
c p weight -648 1 0
c p weight 649 1 0
c p weight -649 1 0
c p weight 650 6.6666666666666675e-06 0
c p weight -650 0.99997999999999998 0
c p weight 651 1 0
c p weight -651 1 0
c p weight 652 1 0
c p weight -652 1 0
c p weight 653 6.6666666666666675e-06 0
c p weight -653 0.99997999999999998 0
c p weight 654 1 0
c p weight -654 1 0
c p weight 655 1 0
c p weight -655 1 0
c p weight 656 6.6666666666666675e-06 0
c p weight -656 0.99997999999999998 0
c p weight 657 1 0
c p weight -657 1 0
c p weight 658 1 0
c p weight -658 1 0
c p weight 659 6.6666666666666675e-06 0
c p weight -659 0.99997999999999998 0
c p weight 660 1 0
c p weight -660 1 0
c p weight 661 1 0
c p weight -661 1 0
c p weight 662 6.6666666666666675e-06 0
c p weight -662 0.99997999999999998 0
c p weight 663 1 0
c p weight -663 1 0
c p weight 664 1 0
c p weight -664 1 0
c p weight 665 6.6666666666666675e-06 0
c p weight -665 0.99997999999999998 0
c p weight 666 1 0
c p weight -666 1 0
c p weight 667 1 0
c p weight -667 1 0
c p weight 668 6.6666666666666675e-06 0
c p weight -668 0.99997999999999998 0
c p weight 669 1 0
c p weight -669 1 0
c p weight 670 1 0
c p weight -670 1 0
c p weight 671 6.6666666666666675e-06 0
c p weight -671 0.99997999999999998 0
c p weight 672 1 0
c p weight -672 1 0
c p weight 673 1 0
c p weight -673 1 0
c p weight 674 6.6666666666666675e-06 0
c p weight -674 0.99997999999999998 0
c p weight 675 1 0
c p weight -675 1 0
c p weight 676 1 0
c p weight -676 1 0
c p weight 677 6.6666666666666675e-06 0
c p weight -677 0.99997999999999998 0
c p weight 678 1 0
c p weight -678 1 0
c p weight 679 1 0
c p weight -679 1 0
c p weight 680 6.6666666666666675e-06 0
c p weight -680 0.99997999999999998 0
c p weight 681 1 0
c p weight -681 1 0
c p weight 682 1 0
c p weight -682 1 0
c p weight 683 6.6666666666666675e-06 0
c p weight -683 0.99997999999999998 0
c p weight 684 1 0
c p weight -684 1 0
c p weight 685 1 0
c p weight -685 1 0
c p weight 686 6.6666666666666675e-06 0
c p weight -686 0.99997999999999998 0
c p weight 687 1 0
c p weight -687 1 0
c p weight 688 1 0
c p weight -688 1 0
c p weight 689 6.6666666666666675e-06 0
c p weight -689 0.99997999999999998 0
c p weight 690 1 0
c p weight -690 1 0
c p weight 691 1 0
c p weight -691 1 0
c p weight 692 6.6666666666666675e-06 0
c p weight -692 0.99997999999999998 0
c p weight 693 1 0
c p weight -693 1 0
c p weight 694 1 0
c p weight -694 1 0
c p weight 695 1.3333333333333334e-06 0
c p weight -695 0.99997999999999998 0
c p weight 696 1 0
c p weight -696 1 0
c p weight 697 1 0
c p weight -697 1 0
c p weight 698 1 0
c p weight -698 1 0
c p weight 699 1 0
c p weight -699 1 0
c p weight 700 6.6666666666666675e-06 0
c p weight -700 0.99997999999999998 0
c p weight 701 1 0
c p weight -701 1 0
c p weight 702 1 0
c p weight -702 1 0
c p weight 703 6.6666666666666675e-06 0
c p weight -703 0.99997999999999998 0
c p weight 704 1 0
c p weight -704 1 0
c p weight 705 1 0
c p weight -705 1 0
c p weight 706 6.6666666666666675e-06 0
c p weight -706 0.99997999999999998 0
c p weight 707 1 0
c p weight -707 1 0
c p weight 708 1 0
c p weight -708 1 0
c p weight 709 6.6666666666666675e-06 0
c p weight -709 0.99997999999999998 0
c p weight 710 1 0
c p weight -710 1 0
c p weight 711 1 0
c p weight -711 1 0
c p weight 712 6.6666666666666675e-06 0
c p weight -712 0.99997999999999998 0
c p weight 713 1 0
c p weight -713 1 0
c p weight 714 1 0
c p weight -714 1 0
c p weight 715 6.6666666666666675e-06 0
c p weight -715 0.99997999999999998 0
c p weight 716 1 0
c p weight -716 1 0
c p weight 717 1 0
c p weight -717 1 0
c p weight 718 6.6666666666666675e-06 0
c p weight -718 0.99997999999999998 0
c p weight 719 1 0
c p weight -719 1 0
c p weight 720 1 0
c p weight -720 1 0
c p weight 721 6.6666666666666675e-06 0
c p weight -721 0.99997999999999998 0
c p weight 722 1 0
c p weight -722 1 0
c p weight 723 1 0
c p weight -723 1 0
c p weight 724 6.6666666666666675e-06 0
c p weight -724 0.99997999999999998 0
c p weight 725 1 0
c p weight -725 1 0
c p weight 726 1 0
c p weight -726 1 0
c p weight 727 6.6666666666666675e-06 0
c p weight -727 0.99997999999999998 0
c p weight 728 1 0
c p weight -728 1 0
c p weight 729 1 0
c p weight -729 1 0
c p weight 730 6.6666666666666675e-06 0
c p weight -730 0.99997999999999998 0
c p weight 731 1 0
c p weight -731 1 0
c p weight 732 1 0
c p weight -732 1 0
c p weight 733 6.6666666666666675e-06 0
c p weight -733 0.99997999999999998 0
c p weight 734 1 0
c p weight -734 1 0
c p weight 735 1 0
c p weight -735 1 0
c p weight 736 6.6666666666666675e-06 0
c p weight -736 0.99997999999999998 0
c p weight 737 1 0
c p weight -737 1 0
c p weight 738 1 0
c p weight -738 1 0
c p weight 739 6.6666666666666675e-06 0
c p weight -739 0.99997999999999998 0
c p weight 740 1 0
c p weight -740 1 0
c p weight 741 1 0
c p weight -741 1 0
c p weight 742 6.6666666666666675e-06 0
c p weight -742 0.99997999999999998 0
c p weight 743 1 0
c p weight -743 1 0
c p weight 744 1 0
c p weight -744 1 0
c p weight 745 6.6666666666666675e-06 0
c p weight -745 0.99997999999999998 0
c p weight 746 1 0
c p weight -746 1 0
c p weight 747 1 0
c p weight -747 1 0
c p weight 748 6.6666666666666675e-06 0
c p weight -748 0.99997999999999998 0
c p weight 749 1 0
c p weight -749 1 0
c p weight 750 1 0
c p weight -750 1 0
c p weight 751 6.6666666666666675e-06 0
c p weight -751 0.99997999999999998 0
c p weight 752 1 0
c p weight -752 1 0
c p weight 753 1 0
c p weight -753 1 0
c p weight 754 6.6666666666666675e-06 0
c p weight -754 0.99997999999999998 0
c p weight 755 1 0
c p weight -755 1 0
c p weight 756 1 0
c p weight -756 1 0
c p weight 757 1.3333333333333334e-06 0
c p weight -757 0.99997999999999998 0
c p weight 758 1 0
c p weight -758 1 0
c p weight 759 1 0
c p weight -759 1 0
c p weight 760 1 0
c p weight -760 1 0
c p weight 761 1 0
c p weight -761 1 0
c p weight 762 6.6666666666666675e-06 0
c p weight -762 0.99997999999999998 0
c p weight 763 1 0
c p weight -763 1 0
c p weight 764 1 0
c p weight -764 1 0
c p weight 765 6.6666666666666675e-06 0
c p weight -765 0.99997999999999998 0
c p weight 766 1 0
c p weight -766 1 0
c p weight 767 1 0
c p weight -767 1 0
c p weight 768 6.6666666666666675e-06 0
c p weight -768 0.99997999999999998 0
c p weight 769 1 0
c p weight -769 1 0
c p weight 770 1 0
c p weight -770 1 0
c p weight 771 6.6666666666666675e-06 0
c p weight -771 0.99997999999999998 0
c p weight 772 1 0
c p weight -772 1 0
c p weight 773 1 0
c p weight -773 1 0
c p weight 774 6.6666666666666675e-06 0
c p weight -774 0.99997999999999998 0
c p weight 775 1 0
c p weight -775 1 0
c p weight 776 1 0
c p weight -776 1 0
c p weight 777 6.6666666666666675e-06 0
c p weight -777 0.99997999999999998 0
c p weight 778 1 0
c p weight -778 1 0
c p weight 779 1 0
c p weight -779 1 0
c p weight 780 6.6666666666666675e-06 0
c p weight -780 0.99997999999999998 0
c p weight 781 1 0
c p weight -781 1 0
c p weight 782 1 0
c p weight -782 1 0
c p weight 783 6.6666666666666675e-06 0
c p weight -783 0.99997999999999998 0
c p weight 784 1 0
c p weight -784 1 0
c p weight 785 1 0
c p weight -785 1 0
c p weight 786 6.6666666666666675e-06 0
c p weight -786 0.99997999999999998 0
c p weight 787 1 0
c p weight -787 1 0
c p weight 788 1 0
c p weight -788 1 0
c p weight 789 6.6666666666666675e-06 0
c p weight -789 0.99997999999999998 0
c p weight 790 1 0
c p weight -790 1 0
c p weight 791 1 0
c p weight -791 1 0
c p weight 792 6.6666666666666675e-06 0
c p weight -792 0.99997999999999998 0
c p weight 793 1 0
c p weight -793 1 0
c p weight 794 1 0
c p weight -794 1 0
c p weight 795 6.6666666666666675e-06 0
c p weight -795 0.99997999999999998 0
c p weight 796 1 0
c p weight -796 1 0
c p weight 797 1 0
c p weight -797 1 0
c p weight 798 6.6666666666666675e-06 0
c p weight -798 0.99997999999999998 0
c p weight 799 1 0
c p weight -799 1 0
c p weight 800 1 0
c p weight -800 1 0
c p weight 801 6.6666666666666675e-06 0
c p weight -801 0.99997999999999998 0
c p weight 802 1 0
c p weight -802 1 0
c p weight 803 1 0
c p weight -803 1 0
c p weight 804 6.6666666666666675e-06 0
c p weight -804 0.99997999999999998 0
c p weight 805 1 0
c p weight -805 1 0
c p weight 806 1 0
c p weight -806 1 0
c p weight 807 6.6666666666666675e-06 0
c p weight -807 0.99997999999999998 0
c p weight 808 1 0
c p weight -808 1 0
c p weight 809 1 0
c p weight -809 1 0
c p weight 810 6.6666666666666675e-06 0
c p weight -810 0.99997999999999998 0
c p weight 811 1 0
c p weight -811 1 0
c p weight 812 1 0
c p weight -812 1 0
c p weight 813 6.6666666666666675e-06 0
c p weight -813 0.99997999999999998 0
c p weight 814 1 0
c p weight -814 1 0
c p weight 815 1 0
c p weight -815 1 0
c p weight 816 6.6666666666666675e-06 0
c p weight -816 0.99997999999999998 0
c p weight 817 1 0
c p weight -817 1 0
c p weight 818 1 0
c p weight -818 1 0
c p weight 819 1.3333333333333334e-06 0
c p weight -819 0.99997999999999998 0
c p weight 820 1 0
c p weight -820 1 0
c p weight 821 1 0
c p weight -821 1 0
c p weight 822 1 0
c p weight -822 1 0
c p weight 823 1 0
c p weight -823 1 0
c p weight 824 6.6666666666666675e-06 0
c p weight -824 0.99997999999999998 0
c p weight 825 1 0
c p weight -825 1 0
c p weight 826 1 0
c p weight -826 1 0
c p weight 827 6.6666666666666675e-06 0
c p weight -827 0.99997999999999998 0
c p weight 828 1 0
c p weight -828 1 0
c p weight 829 1 0
c p weight -829 1 0
c p weight 830 6.6666666666666675e-06 0
c p weight -830 0.99997999999999998 0
c p weight 831 1 0
c p weight -831 1 0
c p weight 832 1 0
c p weight -832 1 0
c p weight 833 6.6666666666666675e-06 0
c p weight -833 0.99997999999999998 0
c p weight 834 1 0
c p weight -834 1 0
c p weight 835 1 0
c p weight -835 1 0
c p weight 836 6.6666666666666675e-06 0
c p weight -836 0.99997999999999998 0
c p weight 837 1 0
c p weight -837 1 0
c p weight 838 1 0
c p weight -838 1 0
c p weight 839 6.6666666666666675e-06 0
c p weight -839 0.99997999999999998 0
c p weight 840 1 0
c p weight -840 1 0
c p weight 841 1 0
c p weight -841 1 0
c p weight 842 6.6666666666666675e-06 0
c p weight -842 0.99997999999999998 0
c p weight 843 1 0
c p weight -843 1 0
c p weight 844 1 0
c p weight -844 1 0
c p weight 845 6.6666666666666675e-06 0
c p weight -845 0.99997999999999998 0
c p weight 846 1 0
c p weight -846 1 0
c p weight 847 1 0
c p weight -847 1 0
c p weight 848 6.6666666666666675e-06 0
c p weight -848 0.99997999999999998 0
c p weight 849 1 0
c p weight -849 1 0
c p weight 850 1 0
c p weight -850 1 0
c p weight 851 6.6666666666666675e-06 0
c p weight -851 0.99997999999999998 0
c p weight 852 1 0
c p weight -852 1 0
c p weight 853 1 0
c p weight -853 1 0
c p weight 854 6.6666666666666675e-06 0
c p weight -854 0.99997999999999998 0
c p weight 855 1 0
c p weight -855 1 0
c p weight 856 1 0
c p weight -856 1 0
c p weight 857 6.6666666666666675e-06 0
c p weight -857 0.99997999999999998 0
c p weight 858 1 0
c p weight -858 1 0
c p weight 859 1 0
c p weight -859 1 0
c p weight 860 6.6666666666666675e-06 0
c p weight -860 0.99997999999999998 0
c p weight 861 1 0
c p weight -861 1 0
c p weight 862 1 0
c p weight -862 1 0
c p weight 863 6.6666666666666675e-06 0
c p weight -863 0.99997999999999998 0
c p weight 864 1 0
c p weight -864 1 0
c p weight 865 1 0
c p weight -865 1 0
c p weight 866 6.6666666666666675e-06 0
c p weight -866 0.99997999999999998 0
c p weight 867 1 0
c p weight -867 1 0
c p weight 868 1 0
c p weight -868 1 0
c p weight 869 6.6666666666666675e-06 0
c p weight -869 0.99997999999999998 0
c p weight 870 1 0
c p weight -870 1 0
c p weight 871 1 0
c p weight -871 1 0
c p weight 872 6.6666666666666675e-06 0
c p weight -872 0.99997999999999998 0
c p weight 873 1 0
c p weight -873 1 0
c p weight 874 1 0
c p weight -874 1 0
c p weight 875 6.6666666666666675e-06 0
c p weight -875 0.99997999999999998 0
c p weight 876 1 0
c p weight -876 1 0
c p weight 877 1 0
c p weight -877 1 0
c p weight 878 6.6666666666666675e-06 0
c p weight -878 0.99997999999999998 0
c p weight 879 1 0
c p weight -879 1 0
c p weight 880 1 0
c p weight -880 1 0
c p weight 881 1.3333333333333334e-06 0
c p weight -881 0.99997999999999998 0
c p weight 882 1 0
c p weight -882 1 0
c p weight 883 1 0
c p weight -883 1 0
c p weight 884 1 0
c p weight -884 1 0
c p weight 885 1 0
c p weight -885 1 0
c p weight 886 6.6666666666666675e-06 0
c p weight -886 0.99997999999999998 0
c p weight 887 1 0
c p weight -887 1 0
c p weight 888 1 0
c p weight -888 1 0
c p weight 889 6.6666666666666675e-06 0
c p weight -889 0.99997999999999998 0
c p weight 890 1 0
c p weight -890 1 0
c p weight 891 1 0
c p weight -891 1 0
c p weight 892 6.6666666666666675e-06 0
c p weight -892 0.99997999999999998 0
c p weight 893 1 0
c p weight -893 1 0
c p weight 894 1 0
c p weight -894 1 0
c p weight 895 6.6666666666666675e-06 0
c p weight -895 0.99997999999999998 0
c p weight 896 1 0
c p weight -896 1 0
c p weight 897 1 0
c p weight -897 1 0
c p weight 898 6.6666666666666675e-06 0
c p weight -898 0.99997999999999998 0
c p weight 899 1 0
c p weight -899 1 0
c p weight 900 1 0
c p weight -900 1 0
c p weight 901 6.6666666666666675e-06 0
c p weight -901 0.99997999999999998 0
c p weight 902 1 0
c p weight -902 1 0
c p weight 903 1 0
c p weight -903 1 0
c p weight 904 6.6666666666666675e-06 0
c p weight -904 0.99997999999999998 0
c p weight 905 1 0
c p weight -905 1 0
c p weight 906 1 0
c p weight -906 1 0
c p weight 907 6.6666666666666675e-06 0
c p weight -907 0.99997999999999998 0
c p weight 908 1 0
c p weight -908 1 0
c p weight 909 1 0
c p weight -909 1 0
c p weight 910 6.6666666666666675e-06 0
c p weight -910 0.99997999999999998 0
c p weight 911 1 0
c p weight -911 1 0
c p weight 912 1 0
c p weight -912 1 0
c p weight 913 6.6666666666666675e-06 0
c p weight -913 0.99997999999999998 0
c p weight 914 1 0
c p weight -914 1 0
c p weight 915 1 0
c p weight -915 1 0
c p weight 916 6.6666666666666675e-06 0
c p weight -916 0.99997999999999998 0
c p weight 917 1 0
c p weight -917 1 0
c p weight 918 1 0
c p weight -918 1 0
c p weight 919 6.6666666666666675e-06 0
c p weight -919 0.99997999999999998 0
c p weight 920 1 0
c p weight -920 1 0
c p weight 921 1 0
c p weight -921 1 0
c p weight 922 6.6666666666666675e-06 0
c p weight -922 0.99997999999999998 0
c p weight 923 1 0
c p weight -923 1 0
c p weight 924 1 0
c p weight -924 1 0
c p weight 925 6.6666666666666675e-06 0
c p weight -925 0.99997999999999998 0
c p weight 926 1 0
c p weight -926 1 0
c p weight 927 1 0
c p weight -927 1 0
c p weight 928 6.6666666666666675e-06 0
c p weight -928 0.99997999999999998 0
c p weight 929 1 0
c p weight -929 1 0
c p weight 930 1 0
c p weight -930 1 0
c p weight 931 6.6666666666666675e-06 0
c p weight -931 0.99997999999999998 0
c p weight 932 1 0
c p weight -932 1 0
c p weight 933 1 0
c p weight -933 1 0
c p weight 934 6.6666666666666675e-06 0
c p weight -934 0.99997999999999998 0
c p weight 935 1 0
c p weight -935 1 0
c p weight 936 1 0
c p weight -936 1 0
c p weight 937 6.6666666666666675e-06 0
c p weight -937 0.99997999999999998 0
c p weight 938 1 0
c p weight -938 1 0
c p weight 939 1 0
c p weight -939 1 0
c p weight 940 6.6666666666666675e-06 0
c p weight -940 0.99997999999999998 0
c p weight 941 1 0
c p weight -941 1 0
c p weight 942 1 0
c p weight -942 1 0
c p weight 943 1.3333333333333334e-06 0
c p weight -943 0.99997999999999998 0
c p weight 944 1 0
c p weight -944 1 0
c p weight 945 1 0
c p weight -945 1 0
c p weight 946 1 0
c p weight -946 1 0
c p weight 947 1 0
c p weight -947 1 0
c p weight 948 6.6666666666666675e-06 0
c p weight -948 0.99997999999999998 0
c p weight 949 1 0
c p weight -949 1 0
c p weight 950 1 0
c p weight -950 1 0
c p weight 951 6.6666666666666675e-06 0
c p weight -951 0.99997999999999998 0
c p weight 952 1 0
c p weight -952 1 0
c p weight 953 1 0
c p weight -953 1 0
c p weight 954 6.6666666666666675e-06 0
c p weight -954 0.99997999999999998 0
c p weight 955 1 0
c p weight -955 1 0
c p weight 956 1 0
c p weight -956 1 0
c p weight 957 6.6666666666666675e-06 0
c p weight -957 0.99997999999999998 0
c p weight 958 1 0
c p weight -958 1 0
c p weight 959 1 0
c p weight -959 1 0
c p weight 960 6.6666666666666675e-06 0
c p weight -960 0.99997999999999998 0
c p weight 961 1 0
c p weight -961 1 0
c p weight 962 1 0
c p weight -962 1 0
c p weight 963 6.6666666666666675e-06 0
c p weight -963 0.99997999999999998 0
c p weight 964 1 0
c p weight -964 1 0
c p weight 965 1 0
c p weight -965 1 0
c p weight 966 6.6666666666666675e-06 0
c p weight -966 0.99997999999999998 0
c p weight 967 1 0
c p weight -967 1 0
c p weight 968 1 0
c p weight -968 1 0
c p weight 969 6.6666666666666675e-06 0
c p weight -969 0.99997999999999998 0
c p weight 970 1 0
c p weight -970 1 0
c p weight 971 1 0
c p weight -971 1 0
c p weight 972 6.6666666666666675e-06 0
c p weight -972 0.99997999999999998 0
c p weight 973 1 0
c p weight -973 1 0
c p weight 974 1 0
c p weight -974 1 0
c p weight 975 6.6666666666666675e-06 0
c p weight -975 0.99997999999999998 0
c p weight 976 1 0
c p weight -976 1 0
c p weight 977 1 0
c p weight -977 1 0
c p weight 978 6.6666666666666675e-06 0
c p weight -978 0.99997999999999998 0
c p weight 979 1 0
c p weight -979 1 0
c p weight 980 1 0
c p weight -980 1 0
c p weight 981 6.6666666666666675e-06 0
c p weight -981 0.99997999999999998 0
c p weight 982 1 0
c p weight -982 1 0
c p weight 983 1 0
c p weight -983 1 0
c p weight 984 6.6666666666666675e-06 0
c p weight -984 0.99997999999999998 0
c p weight 985 1 0
c p weight -985 1 0
c p weight 986 1 0
c p weight -986 1 0
c p weight 987 6.6666666666666675e-06 0
c p weight -987 0.99997999999999998 0
c p weight 988 1 0
c p weight -988 1 0
c p weight 989 1 0
c p weight -989 1 0
c p weight 990 6.6666666666666675e-06 0
c p weight -990 0.99997999999999998 0
c p weight 991 1 0
c p weight -991 1 0
c p weight 992 1 0
c p weight -992 1 0
c p weight 993 6.6666666666666675e-06 0
c p weight -993 0.99997999999999998 0
c p weight 994 1 0
c p weight -994 1 0
c p weight 995 1 0
c p weight -995 1 0
c p weight 996 6.6666666666666675e-06 0
c p weight -996 0.99997999999999998 0
c p weight 997 1 0
c p weight -997 1 0
c p weight 998 1 0
c p weight -998 1 0
c p weight 999 6.6666666666666675e-06 0
c p weight -999 0.99997999999999998 0
c p weight 1000 1 0
c p weight -1000 1 0
c p weight 1001 1 0
c p weight -1001 1 0
c p weight 1002 6.6666666666666675e-06 0
c p weight -1002 0.99997999999999998 0
c p weight 1003 1 0
c p weight -1003 1 0
c p weight 1004 1 0
c p weight -1004 1 0
c p weight 1005 1.3333333333333334e-06 0
c p weight -1005 0.99997999999999998 0
c p weight 1006 1 0
c p weight -1006 1 0
c p weight 1007 1 0
c p weight -1007 1 0
c p weight 1008 1 0
c p weight -1008 1 0
c p weight 1009 1 0
c p weight -1009 1 0
c p weight 1010 6.6666666666666675e-06 0
c p weight -1010 0.99997999999999998 0
c p weight 1011 1 0
c p weight -1011 1 0
c p weight 1012 1 0
c p weight -1012 1 0
c p weight 1013 6.6666666666666675e-06 0
c p weight -1013 0.99997999999999998 0
c p weight 1014 1 0
c p weight -1014 1 0
c p weight 1015 1 0
c p weight -1015 1 0
c p weight 1016 6.6666666666666675e-06 0
c p weight -1016 0.99997999999999998 0
c p weight 1017 1 0
c p weight -1017 1 0
c p weight 1018 1 0
c p weight -1018 1 0
c p weight 1019 6.6666666666666675e-06 0
c p weight -1019 0.99997999999999998 0
c p weight 1020 1 0
c p weight -1020 1 0
c p weight 1021 1 0
c p weight -1021 1 0
c p weight 1022 6.6666666666666675e-06 0
c p weight -1022 0.99997999999999998 0
c p weight 1023 1 0
c p weight -1023 1 0
c p weight 1024 1 0
c p weight -1024 1 0
c p weight 1025 6.6666666666666675e-06 0
c p weight -1025 0.99997999999999998 0
c p weight 1026 1 0
c p weight -1026 1 0
c p weight 1027 1 0
c p weight -1027 1 0
c p weight 1028 6.6666666666666675e-06 0
c p weight -1028 0.99997999999999998 0
c p weight 1029 1 0
c p weight -1029 1 0
c p weight 1030 1 0
c p weight -1030 1 0
c p weight 1031 6.6666666666666675e-06 0
c p weight -1031 0.99997999999999998 0
c p weight 1032 1 0
c p weight -1032 1 0
c p weight 1033 1 0
c p weight -1033 1 0
c p weight 1034 6.6666666666666675e-06 0
c p weight -1034 0.99997999999999998 0
c p weight 1035 1 0
c p weight -1035 1 0
c p weight 1036 1 0
c p weight -1036 1 0
c p weight 1037 6.6666666666666675e-06 0
c p weight -1037 0.99997999999999998 0
c p weight 1038 1 0
c p weight -1038 1 0
c p weight 1039 1 0
c p weight -1039 1 0
c p weight 1040 6.6666666666666675e-06 0
c p weight -1040 0.99997999999999998 0
c p weight 1041 1 0
c p weight -1041 1 0
c p weight 1042 1 0
c p weight -1042 1 0
c p weight 1043 6.6666666666666675e-06 0
c p weight -1043 0.99997999999999998 0
c p weight 1044 1 0
c p weight -1044 1 0
c p weight 1045 1 0
c p weight -1045 1 0
c p weight 1046 6.6666666666666675e-06 0
c p weight -1046 0.99997999999999998 0
c p weight 1047 1 0
c p weight -1047 1 0
c p weight 1048 1 0
c p weight -1048 1 0
c p weight 1049 6.6666666666666675e-06 0
c p weight -1049 0.99997999999999998 0
c p weight 1050 1 0
c p weight -1050 1 0
c p weight 1051 1 0
c p weight -1051 1 0
c p weight 1052 6.6666666666666675e-06 0
c p weight -1052 0.99997999999999998 0
c p weight 1053 1 0
c p weight -1053 1 0
c p weight 1054 1 0
c p weight -1054 1 0
c p weight 1055 6.6666666666666675e-06 0
c p weight -1055 0.99997999999999998 0
c p weight 1056 1 0
c p weight -1056 1 0
c p weight 1057 1 0
c p weight -1057 1 0
c p weight 1058 6.6666666666666675e-06 0
c p weight -1058 0.99997999999999998 0
c p weight 1059 1 0
c p weight -1059 1 0
c p weight 1060 1 0
c p weight -1060 1 0
c p weight 1061 6.6666666666666675e-06 0
c p weight -1061 0.99997999999999998 0
c p weight 1062 1 0
c p weight -1062 1 0
c p weight 1063 1 0
c p weight -1063 1 0
c p weight 1064 6.6666666666666675e-06 0
c p weight -1064 0.99997999999999998 0
c p weight 1065 1 0
c p weight -1065 1 0
c p weight 1066 1 0
c p weight -1066 1 0
c p weight 1067 1.3333333333333334e-06 0
c p weight -1067 0.99997999999999998 0
c p weight 1068 1 0
c p weight -1068 1 0
c p weight 1069 1 0
c p weight -1069 1 0
c p weight 1070 1 0
c p weight -1070 1 0
c p weight 1071 1 0
c p weight -1071 1 0
c p weight 1072 6.6666666666666675e-06 0
c p weight -1072 0.99997999999999998 0
c p weight 1073 1 0
c p weight -1073 1 0
c p weight 1074 1 0
c p weight -1074 1 0
c p weight 1075 6.6666666666666675e-06 0
c p weight -1075 0.99997999999999998 0
c p weight 1076 1 0
c p weight -1076 1 0
c p weight 1077 1 0
c p weight -1077 1 0
c p weight 1078 6.6666666666666675e-06 0
c p weight -1078 0.99997999999999998 0
c p weight 1079 1 0
c p weight -1079 1 0
c p weight 1080 1 0
c p weight -1080 1 0
c p weight 1081 6.6666666666666675e-06 0
c p weight -1081 0.99997999999999998 0
c p weight 1082 1 0
c p weight -1082 1 0
c p weight 1083 1 0
c p weight -1083 1 0
c p weight 1084 6.6666666666666675e-06 0
c p weight -1084 0.99997999999999998 0
c p weight 1085 1 0
c p weight -1085 1 0
c p weight 1086 1 0
c p weight -1086 1 0
c p weight 1087 6.6666666666666675e-06 0
c p weight -1087 0.99997999999999998 0
c p weight 1088 1 0
c p weight -1088 1 0
c p weight 1089 1 0
c p weight -1089 1 0
c p weight 1090 6.6666666666666675e-06 0
c p weight -1090 0.99997999999999998 0
c p weight 1091 1 0
c p weight -1091 1 0
c p weight 1092 1 0
c p weight -1092 1 0
c p weight 1093 6.6666666666666675e-06 0
c p weight -1093 0.99997999999999998 0
c p weight 1094 1 0
c p weight -1094 1 0
c p weight 1095 1 0
c p weight -1095 1 0
c p weight 1096 6.6666666666666675e-06 0
c p weight -1096 0.99997999999999998 0
c p weight 1097 1 0
c p weight -1097 1 0
c p weight 1098 1 0
c p weight -1098 1 0
c p weight 1099 6.6666666666666675e-06 0
c p weight -1099 0.99997999999999998 0
c p weight 1100 1 0
c p weight -1100 1 0
c p weight 1101 1 0
c p weight -1101 1 0
c p weight 1102 6.6666666666666675e-06 0
c p weight -1102 0.99997999999999998 0
c p weight 1103 1 0
c p weight -1103 1 0
c p weight 1104 1 0
c p weight -1104 1 0
c p weight 1105 6.6666666666666675e-06 0
c p weight -1105 0.99997999999999998 0
c p weight 1106 1 0
c p weight -1106 1 0
c p weight 1107 1 0
c p weight -1107 1 0
c p weight 1108 6.6666666666666675e-06 0
c p weight -1108 0.99997999999999998 0
c p weight 1109 1 0
c p weight -1109 1 0
c p weight 1110 1 0
c p weight -1110 1 0
c p weight 1111 6.6666666666666675e-06 0
c p weight -1111 0.99997999999999998 0
c p weight 1112 1 0
c p weight -1112 1 0
c p weight 1113 1 0
c p weight -1113 1 0
c p weight 1114 6.6666666666666675e-06 0
c p weight -1114 0.99997999999999998 0
c p weight 1115 1 0
c p weight -1115 1 0
c p weight 1116 1 0
c p weight -1116 1 0
c p weight 1117 6.6666666666666675e-06 0
c p weight -1117 0.99997999999999998 0
c p weight 1118 1 0
c p weight -1118 1 0
c p weight 1119 1 0
c p weight -1119 1 0
c p weight 1120 6.6666666666666675e-06 0
c p weight -1120 0.99997999999999998 0
c p weight 1121 1 0
c p weight -1121 1 0
c p weight 1122 1 0
c p weight -1122 1 0
c p weight 1123 6.6666666666666675e-06 0
c p weight -1123 0.99997999999999998 0
c p weight 1124 1 0
c p weight -1124 1 0
c p weight 1125 1 0
c p weight -1125 1 0
c p weight 1126 6.6666666666666675e-06 0
c p weight -1126 0.99997999999999998 0
c p weight 1127 1 0
c p weight -1127 1 0
c p weight 1128 1 0
c p weight -1128 1 0
c p weight 1129 1.3333333333333334e-06 0
c p weight -1129 0.99997999999999998 0
c p weight 1130 1 0
c p weight -1130 1 0
c p weight 1131 1 0
c p weight -1131 1 0
c p weight 1132 1 0
c p weight -1132 1 0
c p weight 1133 1 0
c p weight -1133 1 0
c p weight 1134 6.6666666666666675e-06 0
c p weight -1134 0.99997999999999998 0
c p weight 1135 1 0
c p weight -1135 1 0
c p weight 1136 1 0
c p weight -1136 1 0
c p weight 1137 6.6666666666666675e-06 0
c p weight -1137 0.99997999999999998 0
c p weight 1138 1 0
c p weight -1138 1 0
c p weight 1139 1 0
c p weight -1139 1 0
c p weight 1140 6.6666666666666675e-06 0
c p weight -1140 0.99997999999999998 0
c p weight 1141 1 0
c p weight -1141 1 0
c p weight 1142 1 0
c p weight -1142 1 0
c p weight 1143 6.6666666666666675e-06 0
c p weight -1143 0.99997999999999998 0
c p weight 1144 1 0
c p weight -1144 1 0
c p weight 1145 1 0
c p weight -1145 1 0
c p weight 1146 6.6666666666666675e-06 0
c p weight -1146 0.99997999999999998 0
c p weight 1147 1 0
c p weight -1147 1 0
c p weight 1148 1 0
c p weight -1148 1 0
c p weight 1149 6.6666666666666675e-06 0
c p weight -1149 0.99997999999999998 0
c p weight 1150 1 0
c p weight -1150 1 0
c p weight 1151 1 0
c p weight -1151 1 0
c p weight 1152 6.6666666666666675e-06 0
c p weight -1152 0.99997999999999998 0
c p weight 1153 1 0
c p weight -1153 1 0
c p weight 1154 1 0
c p weight -1154 1 0
c p weight 1155 6.6666666666666675e-06 0
c p weight -1155 0.99997999999999998 0
c p weight 1156 1 0
c p weight -1156 1 0
c p weight 1157 1 0
c p weight -1157 1 0
c p weight 1158 6.6666666666666675e-06 0
c p weight -1158 0.99997999999999998 0
c p weight 1159 1 0
c p weight -1159 1 0
c p weight 1160 1 0
c p weight -1160 1 0
c p weight 1161 6.6666666666666675e-06 0
c p weight -1161 0.99997999999999998 0
c p weight 1162 1 0
c p weight -1162 1 0
c p weight 1163 1 0
c p weight -1163 1 0
c p weight 1164 6.6666666666666675e-06 0
c p weight -1164 0.99997999999999998 0
c p weight 1165 1 0
c p weight -1165 1 0
c p weight 1166 1 0
c p weight -1166 1 0
c p weight 1167 6.6666666666666675e-06 0
c p weight -1167 0.99997999999999998 0
c p weight 1168 1 0
c p weight -1168 1 0
c p weight 1169 1 0
c p weight -1169 1 0
c p weight 1170 6.6666666666666675e-06 0
c p weight -1170 0.99997999999999998 0
c p weight 1171 1 0
c p weight -1171 1 0
c p weight 1172 1 0
c p weight -1172 1 0
c p weight 1173 6.6666666666666675e-06 0
c p weight -1173 0.99997999999999998 0
c p weight 1174 1 0
c p weight -1174 1 0
c p weight 1175 1 0
c p weight -1175 1 0
c p weight 1176 6.6666666666666675e-06 0
c p weight -1176 0.99997999999999998 0
c p weight 1177 1 0
c p weight -1177 1 0
c p weight 1178 1 0
c p weight -1178 1 0
c p weight 1179 6.6666666666666675e-06 0
c p weight -1179 0.99997999999999998 0
c p weight 1180 1 0
c p weight -1180 1 0
c p weight 1181 1 0
c p weight -1181 1 0
c p weight 1182 6.6666666666666675e-06 0
c p weight -1182 0.99997999999999998 0
c p weight 1183 1 0
c p weight -1183 1 0
c p weight 1184 1 0
c p weight -1184 1 0
c p weight 1185 6.6666666666666675e-06 0
c p weight -1185 0.99997999999999998 0
c p weight 1186 1 0
c p weight -1186 1 0
c p weight 1187 1 0
c p weight -1187 1 0
c p weight 1188 6.6666666666666675e-06 0
c p weight -1188 0.99997999999999998 0
c p weight 1189 1 0
c p weight -1189 1 0
c p weight 1190 1 0
c p weight -1190 1 0
c p weight 1191 1.3333333333333334e-06 0
c p weight -1191 0.99997999999999998 0
c p weight 1192 1 0
c p weight -1192 1 0
c p weight 1193 1 0
c p weight -1193 1 0
c p weight 1194 1 0
c p weight -1194 1 0
c p weight 1195 1 0
c p weight -1195 1 0
c p weight 1196 6.6666666666666675e-06 0
c p weight -1196 0.99997999999999998 0
c p weight 1197 1 0
c p weight -1197 1 0
c p weight 1198 1 0
c p weight -1198 1 0
c p weight 1199 6.6666666666666675e-06 0
c p weight -1199 0.99997999999999998 0
c p weight 1200 1 0
c p weight -1200 1 0
c p weight 1201 1 0
c p weight -1201 1 0
c p weight 1202 6.6666666666666675e-06 0
c p weight -1202 0.99997999999999998 0
c p weight 1203 1 0
c p weight -1203 1 0
c p weight 1204 1 0
c p weight -1204 1 0
c p weight 1205 6.6666666666666675e-06 0
c p weight -1205 0.99997999999999998 0
c p weight 1206 1 0
c p weight -1206 1 0
c p weight 1207 1 0
c p weight -1207 1 0
c p weight 1208 6.6666666666666675e-06 0
c p weight -1208 0.99997999999999998 0
c p weight 1209 1 0
c p weight -1209 1 0
c p weight 1210 1 0
c p weight -1210 1 0
c p weight 1211 6.6666666666666675e-06 0
c p weight -1211 0.99997999999999998 0
c p weight 1212 1 0
c p weight -1212 1 0
c p weight 1213 1 0
c p weight -1213 1 0
c p weight 1214 6.6666666666666675e-06 0
c p weight -1214 0.99997999999999998 0
c p weight 1215 1 0
c p weight -1215 1 0
c p weight 1216 1 0
c p weight -1216 1 0
c p weight 1217 6.6666666666666675e-06 0
c p weight -1217 0.99997999999999998 0
c p weight 1218 1 0
c p weight -1218 1 0
c p weight 1219 1 0
c p weight -1219 1 0
c p weight 1220 6.6666666666666675e-06 0
c p weight -1220 0.99997999999999998 0
c p weight 1221 1 0
c p weight -1221 1 0
c p weight 1222 1 0
c p weight -1222 1 0
c p weight 1223 6.6666666666666675e-06 0
c p weight -1223 0.99997999999999998 0
c p weight 1224 1 0
c p weight -1224 1 0
c p weight 1225 1 0
c p weight -1225 1 0
c p weight 1226 6.6666666666666675e-06 0
c p weight -1226 0.99997999999999998 0
c p weight 1227 1 0
c p weight -1227 1 0
c p weight 1228 1 0
c p weight -1228 1 0
c p weight 1229 6.6666666666666675e-06 0
c p weight -1229 0.99997999999999998 0
c p weight 1230 1 0
c p weight -1230 1 0
c p weight 1231 1 0
c p weight -1231 1 0
c p weight 1232 6.6666666666666675e-06 0
c p weight -1232 0.99997999999999998 0
c p weight 1233 1 0
c p weight -1233 1 0
c p weight 1234 1 0
c p weight -1234 1 0
c p weight 1235 6.6666666666666675e-06 0
c p weight -1235 0.99997999999999998 0
c p weight 1236 1 0
c p weight -1236 1 0
c p weight 1237 1 0
c p weight -1237 1 0
c p weight 1238 6.6666666666666675e-06 0
c p weight -1238 0.99997999999999998 0
c p weight 1239 1 0
c p weight -1239 1 0
c p weight 1240 1 0
c p weight -1240 1 0
c p weight 1241 6.6666666666666675e-06 0
c p weight -1241 0.99997999999999998 0
c p weight 1242 1 0
c p weight -1242 1 0
c p weight 1243 1 0
c p weight -1243 1 0
c p weight 1244 6.6666666666666675e-06 0
c p weight -1244 0.99997999999999998 0
c p weight 1245 1 0
c p weight -1245 1 0
c p weight 1246 1 0
c p weight -1246 1 0
c p weight 1247 6.6666666666666675e-06 0
c p weight -1247 0.99997999999999998 0
c p weight 1248 1 0
c p weight -1248 1 0
c p weight 1249 1 0
c p weight -1249 1 0
c p weight 1250 6.6666666666666675e-06 0
c p weight -1250 0.99997999999999998 0
c p weight 1251 1 0
c p weight -1251 1 0
c p weight 1252 1 0
c p weight -1252 1 0
c p weight 1253 1.3333333333333334e-06 0
c p weight -1253 0.99997999999999998 0
c p weight 1254 1 0
c p weight -1254 1 0
c p weight 1255 1 0
c p weight -1255 1 0
c p weight 1256 1 0
c p weight -1256 1 0
c p weight 1257 1 0
c p weight -1257 1 0
c p weight 1258 6.6666666666666675e-06 0
c p weight -1258 0.99997999999999998 0
c p weight 1259 1 0
c p weight -1259 1 0
c p weight 1260 1 0
c p weight -1260 1 0
c p weight 1261 6.6666666666666675e-06 0
c p weight -1261 0.99997999999999998 0
c p weight 1262 1 0
c p weight -1262 1 0
c p weight 1263 1 0
c p weight -1263 1 0
c p weight 1264 6.6666666666666675e-06 0
c p weight -1264 0.99997999999999998 0
c p weight 1265 1 0
c p weight -1265 1 0
c p weight 1266 1 0
c p weight -1266 1 0
c p weight 1267 6.6666666666666675e-06 0
c p weight -1267 0.99997999999999998 0
c p weight 1268 1 0
c p weight -1268 1 0
c p weight 1269 1 0
c p weight -1269 1 0
c p weight 1270 6.6666666666666675e-06 0
c p weight -1270 0.99997999999999998 0
c p weight 1271 1 0
c p weight -1271 1 0
c p weight 1272 1 0
c p weight -1272 1 0
c p weight 1273 6.6666666666666675e-06 0
c p weight -1273 0.99997999999999998 0
c p weight 1274 1 0
c p weight -1274 1 0
c p weight 1275 1 0
c p weight -1275 1 0
c p weight 1276 6.6666666666666675e-06 0
c p weight -1276 0.99997999999999998 0
c p weight 1277 1 0
c p weight -1277 1 0
c p weight 1278 1 0
c p weight -1278 1 0
c p weight 1279 6.6666666666666675e-06 0
c p weight -1279 0.99997999999999998 0
c p weight 1280 1 0
c p weight -1280 1 0
c p weight 1281 1 0
c p weight -1281 1 0
c p weight 1282 6.6666666666666675e-06 0
c p weight -1282 0.99997999999999998 0
c p weight 1283 1 0
c p weight -1283 1 0
c p weight 1284 1 0
c p weight -1284 1 0
c p weight 1285 6.6666666666666675e-06 0
c p weight -1285 0.99997999999999998 0
c p weight 1286 1 0
c p weight -1286 1 0
c p weight 1287 1 0
c p weight -1287 1 0
c p weight 1288 6.6666666666666675e-06 0
c p weight -1288 0.99997999999999998 0
c p weight 1289 1 0
c p weight -1289 1 0
c p weight 1290 1 0
c p weight -1290 1 0
c p weight 1291 6.6666666666666675e-06 0
c p weight -1291 0.99997999999999998 0
c p weight 1292 1 0
c p weight -1292 1 0
c p weight 1293 1 0
c p weight -1293 1 0
c p weight 1294 6.6666666666666675e-06 0
c p weight -1294 0.99997999999999998 0
c p weight 1295 1 0
c p weight -1295 1 0
c p weight 1296 1 0
c p weight -1296 1 0
c p weight 1297 6.6666666666666675e-06 0
c p weight -1297 0.99997999999999998 0
c p weight 1298 1 0
c p weight -1298 1 0
c p weight 1299 1 0
c p weight -1299 1 0
c p weight 1300 6.6666666666666675e-06 0
c p weight -1300 0.99997999999999998 0
c p weight 1301 1 0
c p weight -1301 1 0
c p weight 1302 1 0
c p weight -1302 1 0
c p weight 1303 6.6666666666666675e-06 0
c p weight -1303 0.99997999999999998 0
c p weight 1304 1 0
c p weight -1304 1 0
c p weight 1305 1 0
c p weight -1305 1 0
c p weight 1306 6.6666666666666675e-06 0
c p weight -1306 0.99997999999999998 0
c p weight 1307 1 0
c p weight -1307 1 0
c p weight 1308 1 0
c p weight -1308 1 0
c p weight 1309 6.6666666666666675e-06 0
c p weight -1309 0.99997999999999998 0
c p weight 1310 1 0
c p weight -1310 1 0
c p weight 1311 1 0
c p weight -1311 1 0
c p weight 1312 6.6666666666666675e-06 0
c p weight -1312 0.99997999999999998 0
c p weight 1313 1 0
c p weight -1313 1 0
c p weight 1314 1 0
c p weight -1314 1 0
c p weight 1315 1.3333333333333334e-06 0
c p weight -1315 0.99997999999999998 0
c p weight 1316 1 0
c p weight -1316 1 0
c p weight 1317 1 0
c p weight -1317 1 0
c p weight 1318 1 0
c p weight -1318 1 0
c p weight 1319 1 0
c p weight -1319 1 0
c p weight 1320 6.6666666666666675e-06 0
c p weight -1320 0.99997999999999998 0
c p weight 1321 1 0
c p weight -1321 1 0
c p weight 1322 1 0
c p weight -1322 1 0
c p weight 1323 6.6666666666666675e-06 0
c p weight -1323 0.99997999999999998 0
c p weight 1324 1 0
c p weight -1324 1 0
c p weight 1325 1 0
c p weight -1325 1 0
c p weight 1326 6.6666666666666675e-06 0
c p weight -1326 0.99997999999999998 0
c p weight 1327 1 0
c p weight -1327 1 0
c p weight 1328 1 0
c p weight -1328 1 0
c p weight 1329 6.6666666666666675e-06 0
c p weight -1329 0.99997999999999998 0
c p weight 1330 1 0
c p weight -1330 1 0
c p weight 1331 1 0
c p weight -1331 1 0
c p weight 1332 6.6666666666666675e-06 0
c p weight -1332 0.99997999999999998 0
c p weight 1333 1 0
c p weight -1333 1 0
c p weight 1334 1 0
c p weight -1334 1 0
c p weight 1335 6.6666666666666675e-06 0
c p weight -1335 0.99997999999999998 0
c p weight 1336 1 0
c p weight -1336 1 0
c p weight 1337 1 0
c p weight -1337 1 0
c p weight 1338 6.6666666666666675e-06 0
c p weight -1338 0.99997999999999998 0
c p weight 1339 1 0
c p weight -1339 1 0
c p weight 1340 1 0
c p weight -1340 1 0
c p weight 1341 6.6666666666666675e-06 0
c p weight -1341 0.99997999999999998 0
c p weight 1342 1 0
c p weight -1342 1 0
c p weight 1343 1 0
c p weight -1343 1 0
c p weight 1344 6.6666666666666675e-06 0
c p weight -1344 0.99997999999999998 0
c p weight 1345 1 0
c p weight -1345 1 0
c p weight 1346 1 0
c p weight -1346 1 0
c p weight 1347 6.6666666666666675e-06 0
c p weight -1347 0.99997999999999998 0
c p weight 1348 1 0
c p weight -1348 1 0
c p weight 1349 1 0
c p weight -1349 1 0
c p weight 1350 6.6666666666666675e-06 0
c p weight -1350 0.99997999999999998 0
c p weight 1351 1 0
c p weight -1351 1 0
c p weight 1352 1 0
c p weight -1352 1 0
c p weight 1353 6.6666666666666675e-06 0
c p weight -1353 0.99997999999999998 0
c p weight 1354 1 0
c p weight -1354 1 0
c p weight 1355 1 0
c p weight -1355 1 0
c p weight 1356 6.6666666666666675e-06 0
c p weight -1356 0.99997999999999998 0
c p weight 1357 1 0
c p weight -1357 1 0
c p weight 1358 1 0
c p weight -1358 1 0
c p weight 1359 6.6666666666666675e-06 0
c p weight -1359 0.99997999999999998 0
c p weight 1360 1 0
c p weight -1360 1 0
c p weight 1361 1 0
c p weight -1361 1 0
c p weight 1362 6.6666666666666675e-06 0
c p weight -1362 0.99997999999999998 0
c p weight 1363 1 0
c p weight -1363 1 0
c p weight 1364 1 0
c p weight -1364 1 0
c p weight 1365 6.6666666666666675e-06 0
c p weight -1365 0.99997999999999998 0
c p weight 1366 1 0
c p weight -1366 1 0
c p weight 1367 1 0
c p weight -1367 1 0
c p weight 1368 6.6666666666666675e-06 0
c p weight -1368 0.99997999999999998 0
c p weight 1369 1 0
c p weight -1369 1 0
c p weight 1370 1 0
c p weight -1370 1 0
c p weight 1371 6.6666666666666675e-06 0
c p weight -1371 0.99997999999999998 0
c p weight 1372 1 0
c p weight -1372 1 0
c p weight 1373 1 0
c p weight -1373 1 0
c p weight 1374 6.6666666666666675e-06 0
c p weight -1374 0.99997999999999998 0
c p weight 1375 1 0
c p weight -1375 1 0
c p weight 1376 1 0
c p weight -1376 1 0
c p weight 1377 1.3333333333333334e-06 0
c p weight -1377 0.99997999999999998 0
c p weight 1378 1 0
c p weight -1378 1 0
c p weight 1379 1 0
c p weight -1379 1 0
c p weight 1380 1 0
c p weight -1380 1 0
c p weight 1381 1 0
c p weight -1381 1 0
c p weight 1382 6.6666666666666675e-06 0
c p weight -1382 0.99997999999999998 0
c p weight 1383 1 0
c p weight -1383 1 0
c p weight 1384 1 0
c p weight -1384 1 0
c p weight 1385 6.6666666666666675e-06 0
c p weight -1385 0.99997999999999998 0
c p weight 1386 1 0
c p weight -1386 1 0
c p weight 1387 1 0
c p weight -1387 1 0
c p weight 1388 6.6666666666666675e-06 0
c p weight -1388 0.99997999999999998 0
c p weight 1389 1 0
c p weight -1389 1 0
c p weight 1390 1 0
c p weight -1390 1 0
c p weight 1391 6.6666666666666675e-06 0
c p weight -1391 0.99997999999999998 0
c p weight 1392 1 0
c p weight -1392 1 0
c p weight 1393 1 0
c p weight -1393 1 0
c p weight 1394 6.6666666666666675e-06 0
c p weight -1394 0.99997999999999998 0
c p weight 1395 1 0
c p weight -1395 1 0
c p weight 1396 1 0
c p weight -1396 1 0
c p weight 1397 6.6666666666666675e-06 0
c p weight -1397 0.99997999999999998 0
c p weight 1398 1 0
c p weight -1398 1 0
c p weight 1399 1 0
c p weight -1399 1 0
c p weight 1400 6.6666666666666675e-06 0
c p weight -1400 0.99997999999999998 0
c p weight 1401 1 0
c p weight -1401 1 0
c p weight 1402 1 0
c p weight -1402 1 0
c p weight 1403 6.6666666666666675e-06 0
c p weight -1403 0.99997999999999998 0
c p weight 1404 1 0
c p weight -1404 1 0
c p weight 1405 1 0
c p weight -1405 1 0
c p weight 1406 6.6666666666666675e-06 0
c p weight -1406 0.99997999999999998 0
c p weight 1407 1 0
c p weight -1407 1 0
c p weight 1408 1 0
c p weight -1408 1 0
c p weight 1409 6.6666666666666675e-06 0
c p weight -1409 0.99997999999999998 0
c p weight 1410 1 0
c p weight -1410 1 0
c p weight 1411 1 0
c p weight -1411 1 0
c p weight 1412 6.6666666666666675e-06 0
c p weight -1412 0.99997999999999998 0
c p weight 1413 1 0
c p weight -1413 1 0
c p weight 1414 1 0
c p weight -1414 1 0
c p weight 1415 6.6666666666666675e-06 0
c p weight -1415 0.99997999999999998 0
c p weight 1416 1 0
c p weight -1416 1 0
c p weight 1417 1 0
c p weight -1417 1 0
c p weight 1418 6.6666666666666675e-06 0
c p weight -1418 0.99997999999999998 0
c p weight 1419 1 0
c p weight -1419 1 0
c p weight 1420 1 0
c p weight -1420 1 0
c p weight 1421 6.6666666666666675e-06 0
c p weight -1421 0.99997999999999998 0
c p weight 1422 1 0
c p weight -1422 1 0
c p weight 1423 1 0
c p weight -1423 1 0
c p weight 1424 6.6666666666666675e-06 0
c p weight -1424 0.99997999999999998 0
c p weight 1425 1 0
c p weight -1425 1 0
c p weight 1426 1 0
c p weight -1426 1 0
c p weight 1427 6.6666666666666675e-06 0
c p weight -1427 0.99997999999999998 0
c p weight 1428 1 0
c p weight -1428 1 0
c p weight 1429 1 0
c p weight -1429 1 0
c p weight 1430 6.6666666666666675e-06 0
c p weight -1430 0.99997999999999998 0
c p weight 1431 1 0
c p weight -1431 1 0
c p weight 1432 1 0
c p weight -1432 1 0
c p weight 1433 6.6666666666666675e-06 0
c p weight -1433 0.99997999999999998 0
c p weight 1434 1 0
c p weight -1434 1 0
c p weight 1435 1 0
c p weight -1435 1 0
c p weight 1436 6.6666666666666675e-06 0
c p weight -1436 0.99997999999999998 0
c p weight 1437 1 0
c p weight -1437 1 0
c p weight 1438 1 0
c p weight -1438 1 0
c p weight 1439 1.3333333333333334e-06 0
c p weight -1439 0.99997999999999998 0
c p weight 1440 1 0
c p weight -1440 1 0
c p weight 1441 1 0
c p weight -1441 1 0
c p weight 1442 1 0
c p weight -1442 1 0
c p weight 1443 1 0
c p weight -1443 1 0
c p weight 1444 6.6666666666666675e-06 0
c p weight -1444 0.99997999999999998 0
c p weight 1445 1 0
c p weight -1445 1 0
c p weight 1446 1 0
c p weight -1446 1 0
c p weight 1447 6.6666666666666675e-06 0
c p weight -1447 0.99997999999999998 0
c p weight 1448 1 0
c p weight -1448 1 0
c p weight 1449 1 0
c p weight -1449 1 0
c p weight 1450 6.6666666666666675e-06 0
c p weight -1450 0.99997999999999998 0
c p weight 1451 1 0
c p weight -1451 1 0
c p weight 1452 1 0
c p weight -1452 1 0
c p weight 1453 6.6666666666666675e-06 0
c p weight -1453 0.99997999999999998 0
c p weight 1454 1 0
c p weight -1454 1 0
c p weight 1455 1 0
c p weight -1455 1 0
c p weight 1456 6.6666666666666675e-06 0
c p weight -1456 0.99997999999999998 0
c p weight 1457 1 0
c p weight -1457 1 0
c p weight 1458 1 0
c p weight -1458 1 0
c p weight 1459 6.6666666666666675e-06 0
c p weight -1459 0.99997999999999998 0
c p weight 1460 1 0
c p weight -1460 1 0
c p weight 1461 1 0
c p weight -1461 1 0
c p weight 1462 6.6666666666666675e-06 0
c p weight -1462 0.99997999999999998 0
c p weight 1463 1 0
c p weight -1463 1 0
c p weight 1464 1 0
c p weight -1464 1 0
c p weight 1465 6.6666666666666675e-06 0
c p weight -1465 0.99997999999999998 0
c p weight 1466 1 0
c p weight -1466 1 0
c p weight 1467 1 0
c p weight -1467 1 0
c p weight 1468 6.6666666666666675e-06 0
c p weight -1468 0.99997999999999998 0
c p weight 1469 1 0
c p weight -1469 1 0
c p weight 1470 1 0
c p weight -1470 1 0
c p weight 1471 6.6666666666666675e-06 0
c p weight -1471 0.99997999999999998 0
c p weight 1472 1 0
c p weight -1472 1 0
c p weight 1473 1 0
c p weight -1473 1 0
c p weight 1474 6.6666666666666675e-06 0
c p weight -1474 0.99997999999999998 0
c p weight 1475 1 0
c p weight -1475 1 0
c p weight 1476 1 0
c p weight -1476 1 0
c p weight 1477 6.6666666666666675e-06 0
c p weight -1477 0.99997999999999998 0
c p weight 1478 1 0
c p weight -1478 1 0
c p weight 1479 1 0
c p weight -1479 1 0
c p weight 1480 6.6666666666666675e-06 0
c p weight -1480 0.99997999999999998 0
c p weight 1481 1 0
c p weight -1481 1 0
c p weight 1482 1 0
c p weight -1482 1 0
c p weight 1483 6.6666666666666675e-06 0
c p weight -1483 0.99997999999999998 0
c p weight 1484 1 0
c p weight -1484 1 0
c p weight 1485 1 0
c p weight -1485 1 0
c p weight 1486 6.6666666666666675e-06 0
c p weight -1486 0.99997999999999998 0
c p weight 1487 1 0
c p weight -1487 1 0
c p weight 1488 1 0
c p weight -1488 1 0
c p weight 1489 6.6666666666666675e-06 0
c p weight -1489 0.99997999999999998 0
c p weight 1490 1 0
c p weight -1490 1 0
c p weight 1491 1 0
c p weight -1491 1 0
c p weight 1492 6.6666666666666675e-06 0
c p weight -1492 0.99997999999999998 0
c p weight 1493 1 0
c p weight -1493 1 0
c p weight 1494 1 0
c p weight -1494 1 0
c p weight 1495 6.6666666666666675e-06 0
c p weight -1495 0.99997999999999998 0
c p weight 1496 1 0
c p weight -1496 1 0
c p weight 1497 1 0
c p weight -1497 1 0
c p weight 1498 6.6666666666666675e-06 0
c p weight -1498 0.99997999999999998 0
c p weight 1499 1 0
c p weight -1499 1 0
c p weight 1500 1 0
c p weight -1500 1 0
c p weight 1501 1.3333333333333334e-06 0
c p weight -1501 0.99997999999999998 0
c p weight 1502 1 0
c p weight -1502 1 0
c p weight 1503 1 0
c p weight -1503 1 0
c p weight 1504 1 0
c p weight -1504 1 0
c p weight 1505 1 0
c p weight -1505 1 0
c p weight 1506 6.6666666666666675e-06 0
c p weight -1506 0.99997999999999998 0
c p weight 1507 1 0
c p weight -1507 1 0
c p weight 1508 1 0
c p weight -1508 1 0
c p weight 1509 6.6666666666666675e-06 0
c p weight -1509 0.99997999999999998 0
c p weight 1510 1 0
c p weight -1510 1 0
c p weight 1511 1 0
c p weight -1511 1 0
c p weight 1512 6.6666666666666675e-06 0
c p weight -1512 0.99997999999999998 0
c p weight 1513 1 0
c p weight -1513 1 0
c p weight 1514 1 0
c p weight -1514 1 0
c p weight 1515 6.6666666666666675e-06 0
c p weight -1515 0.99997999999999998 0
c p weight 1516 1 0
c p weight -1516 1 0
c p weight 1517 1 0
c p weight -1517 1 0
c p weight 1518 6.6666666666666675e-06 0
c p weight -1518 0.99997999999999998 0
c p weight 1519 1 0
c p weight -1519 1 0
c p weight 1520 1 0
c p weight -1520 1 0
c p weight 1521 6.6666666666666675e-06 0
c p weight -1521 0.99997999999999998 0
c p weight 1522 1 0
c p weight -1522 1 0
c p weight 1523 1 0
c p weight -1523 1 0
c p weight 1524 6.6666666666666675e-06 0
c p weight -1524 0.99997999999999998 0
c p weight 1525 1 0
c p weight -1525 1 0
c p weight 1526 1 0
c p weight -1526 1 0
c p weight 1527 6.6666666666666675e-06 0
c p weight -1527 0.99997999999999998 0
c p weight 1528 1 0
c p weight -1528 1 0
c p weight 1529 1 0
c p weight -1529 1 0
c p weight 1530 6.6666666666666675e-06 0
c p weight -1530 0.99997999999999998 0
c p weight 1531 1 0
c p weight -1531 1 0
c p weight 1532 1 0
c p weight -1532 1 0
c p weight 1533 6.6666666666666675e-06 0
c p weight -1533 0.99997999999999998 0
c p weight 1534 1 0
c p weight -1534 1 0
c p weight 1535 1 0
c p weight -1535 1 0
c p weight 1536 6.6666666666666675e-06 0
c p weight -1536 0.99997999999999998 0
c p weight 1537 1 0
c p weight -1537 1 0
c p weight 1538 1 0
c p weight -1538 1 0
c p weight 1539 6.6666666666666675e-06 0
c p weight -1539 0.99997999999999998 0
c p weight 1540 1 0
c p weight -1540 1 0
c p weight 1541 1 0
c p weight -1541 1 0
c p weight 1542 6.6666666666666675e-06 0
c p weight -1542 0.99997999999999998 0
c p weight 1543 1 0
c p weight -1543 1 0
c p weight 1544 1 0
c p weight -1544 1 0
c p weight 1545 6.6666666666666675e-06 0
c p weight -1545 0.99997999999999998 0
c p weight 1546 1 0
c p weight -1546 1 0
c p weight 1547 1 0
c p weight -1547 1 0
c p weight 1548 6.6666666666666675e-06 0
c p weight -1548 0.99997999999999998 0
c p weight 1549 1 0
c p weight -1549 1 0
c p weight 1550 1 0
c p weight -1550 1 0
c p weight 1551 6.6666666666666675e-06 0
c p weight -1551 0.99997999999999998 0
c p weight 1552 1 0
c p weight -1552 1 0
c p weight 1553 1 0
c p weight -1553 1 0
c p weight 1554 6.6666666666666675e-06 0
c p weight -1554 0.99997999999999998 0
c p weight 1555 1 0
c p weight -1555 1 0
c p weight 1556 1 0
c p weight -1556 1 0
c p weight 1557 6.6666666666666675e-06 0
c p weight -1557 0.99997999999999998 0
c p weight 1558 1 0
c p weight -1558 1 0
c p weight 1559 1 0
c p weight -1559 1 0
c p weight 1560 6.6666666666666675e-06 0
c p weight -1560 0.99997999999999998 0
c p weight 1561 1 0
c p weight -1561 1 0
c p weight 1562 1 0
c p weight -1562 1 0
c p weight 1563 1.3333333333333334e-06 0
c p weight -1563 0.99997999999999998 0
c p weight 1564 1 0
c p weight -1564 1 0
c p weight 1565 1 0
c p weight -1565 1 0
c p weight 1566 1 0
c p weight -1566 1 0
c p weight 1567 1 0
c p weight -1567 1 0
c p weight 1568 6.6666666666666675e-06 0
c p weight -1568 0.99997999999999998 0
c p weight 1569 1 0
c p weight -1569 1 0
c p weight 1570 1 0
c p weight -1570 1 0
c p weight 1571 6.6666666666666675e-06 0
c p weight -1571 0.99997999999999998 0
c p weight 1572 1 0
c p weight -1572 1 0
c p weight 1573 1 0
c p weight -1573 1 0
c p weight 1574 6.6666666666666675e-06 0
c p weight -1574 0.99997999999999998 0
c p weight 1575 1 0
c p weight -1575 1 0
c p weight 1576 1 0
c p weight -1576 1 0
c p weight 1577 6.6666666666666675e-06 0
c p weight -1577 0.99997999999999998 0
c p weight 1578 1 0
c p weight -1578 1 0
c p weight 1579 1 0
c p weight -1579 1 0
c p weight 1580 6.6666666666666675e-06 0
c p weight -1580 0.99997999999999998 0
c p weight 1581 1 0
c p weight -1581 1 0
c p weight 1582 1 0
c p weight -1582 1 0
c p weight 1583 6.6666666666666675e-06 0
c p weight -1583 0.99997999999999998 0
c p weight 1584 1 0
c p weight -1584 1 0
c p weight 1585 1 0
c p weight -1585 1 0
c p weight 1586 6.6666666666666675e-06 0
c p weight -1586 0.99997999999999998 0
c p weight 1587 1 0
c p weight -1587 1 0
c p weight 1588 1 0
c p weight -1588 1 0
c p weight 1589 6.6666666666666675e-06 0
c p weight -1589 0.99997999999999998 0
c p weight 1590 1 0
c p weight -1590 1 0
c p weight 1591 1 0
c p weight -1591 1 0
c p weight 1592 6.6666666666666675e-06 0
c p weight -1592 0.99997999999999998 0
c p weight 1593 1 0
c p weight -1593 1 0
c p weight 1594 1 0
c p weight -1594 1 0
c p weight 1595 6.6666666666666675e-06 0
c p weight -1595 0.99997999999999998 0
c p weight 1596 1 0
c p weight -1596 1 0
c p weight 1597 1 0
c p weight -1597 1 0
c p weight 1598 6.6666666666666675e-06 0
c p weight -1598 0.99997999999999998 0
c p weight 1599 1 0
c p weight -1599 1 0
c p weight 1600 1 0
c p weight -1600 1 0
c p weight 1601 6.6666666666666675e-06 0
c p weight -1601 0.99997999999999998 0
c p weight 1602 1 0
c p weight -1602 1 0
c p weight 1603 1 0
c p weight -1603 1 0
c p weight 1604 6.6666666666666675e-06 0
c p weight -1604 0.99997999999999998 0
c p weight 1605 1 0
c p weight -1605 1 0
c p weight 1606 1 0
c p weight -1606 1 0
c p weight 1607 6.6666666666666675e-06 0
c p weight -1607 0.99997999999999998 0
c p weight 1608 1 0
c p weight -1608 1 0
c p weight 1609 1 0
c p weight -1609 1 0
c p weight 1610 6.6666666666666675e-06 0
c p weight -1610 0.99997999999999998 0
c p weight 1611 1 0
c p weight -1611 1 0
c p weight 1612 1 0
c p weight -1612 1 0
c p weight 1613 6.6666666666666675e-06 0
c p weight -1613 0.99997999999999998 0
c p weight 1614 1 0
c p weight -1614 1 0
c p weight 1615 1 0
c p weight -1615 1 0
c p weight 1616 6.6666666666666675e-06 0
c p weight -1616 0.99997999999999998 0
c p weight 1617 1 0
c p weight -1617 1 0
c p weight 1618 1 0
c p weight -1618 1 0
c p weight 1619 6.6666666666666675e-06 0
c p weight -1619 0.99997999999999998 0
c p weight 1620 1 0
c p weight -1620 1 0
c p weight 1621 1 0
c p weight -1621 1 0
c p weight 1622 6.6666666666666675e-06 0
c p weight -1622 0.99997999999999998 0
c p weight 1623 1 0
c p weight -1623 1 0
c p weight 1624 1 0
c p weight -1624 1 0
c p weight 1625 1.3333333333333334e-06 0
c p weight -1625 0.99997999999999998 0
c p weight 1626 1 0
c p weight -1626 1 0
c p weight 1627 1 0
c p weight -1627 1 0
c p weight 1628 1 0
c p weight -1628 1 0
c p weight 1629 1 0
c p weight -1629 1 0
c p weight 1630 6.6666666666666675e-06 0
c p weight -1630 0.99997999999999998 0
c p weight 1631 1 0
c p weight -1631 1 0
c p weight 1632 1 0
c p weight -1632 1 0
c p weight 1633 6.6666666666666675e-06 0
c p weight -1633 0.99997999999999998 0
c p weight 1634 1 0
c p weight -1634 1 0
c p weight 1635 1 0
c p weight -1635 1 0
c p weight 1636 6.6666666666666675e-06 0
c p weight -1636 0.99997999999999998 0
c p weight 1637 1 0
c p weight -1637 1 0
c p weight 1638 1 0
c p weight -1638 1 0
c p weight 1639 6.6666666666666675e-06 0
c p weight -1639 0.99997999999999998 0
c p weight 1640 1 0
c p weight -1640 1 0
c p weight 1641 1 0
c p weight -1641 1 0
c p weight 1642 6.6666666666666675e-06 0
c p weight -1642 0.99997999999999998 0
c p weight 1643 1 0
c p weight -1643 1 0
c p weight 1644 1 0
c p weight -1644 1 0
c p weight 1645 6.6666666666666675e-06 0
c p weight -1645 0.99997999999999998 0
c p weight 1646 1 0
c p weight -1646 1 0
c p weight 1647 1 0
c p weight -1647 1 0
c p weight 1648 6.6666666666666675e-06 0
c p weight -1648 0.99997999999999998 0
c p weight 1649 1 0
c p weight -1649 1 0
c p weight 1650 1 0
c p weight -1650 1 0
c p weight 1651 6.6666666666666675e-06 0
c p weight -1651 0.99997999999999998 0
c p weight 1652 1 0
c p weight -1652 1 0
c p weight 1653 1 0
c p weight -1653 1 0
c p weight 1654 6.6666666666666675e-06 0
c p weight -1654 0.99997999999999998 0
c p weight 1655 1 0
c p weight -1655 1 0
c p weight 1656 1 0
c p weight -1656 1 0
c p weight 1657 6.6666666666666675e-06 0
c p weight -1657 0.99997999999999998 0
c p weight 1658 1 0
c p weight -1658 1 0
c p weight 1659 1 0
c p weight -1659 1 0
c p weight 1660 6.6666666666666675e-06 0
c p weight -1660 0.99997999999999998 0
c p weight 1661 1 0
c p weight -1661 1 0
c p weight 1662 1 0
c p weight -1662 1 0
c p weight 1663 6.6666666666666675e-06 0
c p weight -1663 0.99997999999999998 0
c p weight 1664 1 0
c p weight -1664 1 0
c p weight 1665 1 0
c p weight -1665 1 0
c p weight 1666 6.6666666666666675e-06 0
c p weight -1666 0.99997999999999998 0
c p weight 1667 1 0
c p weight -1667 1 0
c p weight 1668 1 0
c p weight -1668 1 0
c p weight 1669 6.6666666666666675e-06 0
c p weight -1669 0.99997999999999998 0
c p weight 1670 1 0
c p weight -1670 1 0
c p weight 1671 1 0
c p weight -1671 1 0
c p weight 1672 6.6666666666666675e-06 0
c p weight -1672 0.99997999999999998 0
c p weight 1673 1 0
c p weight -1673 1 0
c p weight 1674 1 0
c p weight -1674 1 0
c p weight 1675 6.6666666666666675e-06 0
c p weight -1675 0.99997999999999998 0
c p weight 1676 1 0
c p weight -1676 1 0
c p weight 1677 1 0
c p weight -1677 1 0
c p weight 1678 6.6666666666666675e-06 0
c p weight -1678 0.99997999999999998 0
c p weight 1679 1 0
c p weight -1679 1 0
c p weight 1680 1 0
c p weight -1680 1 0
c p weight 1681 6.6666666666666675e-06 0
c p weight -1681 0.99997999999999998 0
c p weight 1682 1 0
c p weight -1682 1 0
c p weight 1683 1 0
c p weight -1683 1 0
c p weight 1684 6.6666666666666675e-06 0
c p weight -1684 0.99997999999999998 0
c p weight 1685 1 0
c p weight -1685 1 0
c p weight 1686 1 0
c p weight -1686 1 0
c p weight 1687 1.3333333333333334e-06 0
c p weight -1687 0.99997999999999998 0
c p weight 1688 1 0
c p weight -1688 1 0
c p weight 1689 1 0
c p weight -1689 1 0
c p weight 1690 1 0
c p weight -1690 1 0
c p weight 1691 1 0
c p weight -1691 1 0
c p weight 1692 6.6666666666666675e-06 0
c p weight -1692 0.99997999999999998 0
c p weight 1693 1 0
c p weight -1693 1 0
c p weight 1694 1 0
c p weight -1694 1 0
c p weight 1695 6.6666666666666675e-06 0
c p weight -1695 0.99997999999999998 0
c p weight 1696 1 0
c p weight -1696 1 0
c p weight 1697 1 0
c p weight -1697 1 0
c p weight 1698 6.6666666666666675e-06 0
c p weight -1698 0.99997999999999998 0
c p weight 1699 1 0
c p weight -1699 1 0
c p weight 1700 1 0
c p weight -1700 1 0
c p weight 1701 6.6666666666666675e-06 0
c p weight -1701 0.99997999999999998 0
c p weight 1702 1 0
c p weight -1702 1 0
c p weight 1703 1 0
c p weight -1703 1 0
c p weight 1704 6.6666666666666675e-06 0
c p weight -1704 0.99997999999999998 0
c p weight 1705 1 0
c p weight -1705 1 0
c p weight 1706 1 0
c p weight -1706 1 0
c p weight 1707 6.6666666666666675e-06 0
c p weight -1707 0.99997999999999998 0
c p weight 1708 1 0
c p weight -1708 1 0
c p weight 1709 1 0
c p weight -1709 1 0
c p weight 1710 6.6666666666666675e-06 0
c p weight -1710 0.99997999999999998 0
c p weight 1711 1 0
c p weight -1711 1 0
c p weight 1712 1 0
c p weight -1712 1 0
c p weight 1713 6.6666666666666675e-06 0
c p weight -1713 0.99997999999999998 0
c p weight 1714 1 0
c p weight -1714 1 0
c p weight 1715 1 0
c p weight -1715 1 0
c p weight 1716 6.6666666666666675e-06 0
c p weight -1716 0.99997999999999998 0
c p weight 1717 1 0
c p weight -1717 1 0
c p weight 1718 1 0
c p weight -1718 1 0
c p weight 1719 6.6666666666666675e-06 0
c p weight -1719 0.99997999999999998 0
c p weight 1720 1 0
c p weight -1720 1 0
c p weight 1721 1 0
c p weight -1721 1 0
c p weight 1722 6.6666666666666675e-06 0
c p weight -1722 0.99997999999999998 0
c p weight 1723 1 0
c p weight -1723 1 0
c p weight 1724 1 0
c p weight -1724 1 0
c p weight 1725 6.6666666666666675e-06 0
c p weight -1725 0.99997999999999998 0
c p weight 1726 1 0
c p weight -1726 1 0
c p weight 1727 1 0
c p weight -1727 1 0
c p weight 1728 6.6666666666666675e-06 0
c p weight -1728 0.99997999999999998 0
c p weight 1729 1 0
c p weight -1729 1 0
c p weight 1730 1 0
c p weight -1730 1 0
c p weight 1731 6.6666666666666675e-06 0
c p weight -1731 0.99997999999999998 0
c p weight 1732 1 0
c p weight -1732 1 0
c p weight 1733 1 0
c p weight -1733 1 0
c p weight 1734 6.6666666666666675e-06 0
c p weight -1734 0.99997999999999998 0
c p weight 1735 1 0
c p weight -1735 1 0
c p weight 1736 1 0
c p weight -1736 1 0
c p weight 1737 6.6666666666666675e-06 0
c p weight -1737 0.99997999999999998 0
c p weight 1738 1 0
c p weight -1738 1 0
c p weight 1739 1 0
c p weight -1739 1 0
c p weight 1740 6.6666666666666675e-06 0
c p weight -1740 0.99997999999999998 0
c p weight 1741 1 0
c p weight -1741 1 0
c p weight 1742 1 0
c p weight -1742 1 0
c p weight 1743 6.6666666666666675e-06 0
c p weight -1743 0.99997999999999998 0
c p weight 1744 1 0
c p weight -1744 1 0
c p weight 1745 1 0
c p weight -1745 1 0
c p weight 1746 6.6666666666666675e-06 0
c p weight -1746 0.99997999999999998 0
c p weight 1747 1 0
c p weight -1747 1 0
c p weight 1748 1 0
c p weight -1748 1 0
c p weight 1749 1.3333333333333334e-06 0
c p weight -1749 0.99997999999999998 0
c p weight 1750 1 0
c p weight -1750 1 0
c p weight 1751 1 0
c p weight -1751 1 0
c p weight 1752 1 0
c p weight -1752 1 0
c p weight 1753 1 0
c p weight -1753 1 0
c p weight 1754 6.6666666666666675e-06 0
c p weight -1754 0.99997999999999998 0
c p weight 1755 1 0
c p weight -1755 1 0
c p weight 1756 1 0
c p weight -1756 1 0
c p weight 1757 6.6666666666666675e-06 0
c p weight -1757 0.99997999999999998 0
c p weight 1758 1 0
c p weight -1758 1 0
c p weight 1759 1 0
c p weight -1759 1 0
c p weight 1760 6.6666666666666675e-06 0
c p weight -1760 0.99997999999999998 0
c p weight 1761 1 0
c p weight -1761 1 0
c p weight 1762 1 0
c p weight -1762 1 0
c p weight 1763 6.6666666666666675e-06 0
c p weight -1763 0.99997999999999998 0
c p weight 1764 1 0
c p weight -1764 1 0
c p weight 1765 1 0
c p weight -1765 1 0
c p weight 1766 6.6666666666666675e-06 0
c p weight -1766 0.99997999999999998 0
c p weight 1767 1 0
c p weight -1767 1 0
c p weight 1768 1 0
c p weight -1768 1 0
c p weight 1769 6.6666666666666675e-06 0
c p weight -1769 0.99997999999999998 0
c p weight 1770 1 0
c p weight -1770 1 0
c p weight 1771 1 0
c p weight -1771 1 0
c p weight 1772 6.6666666666666675e-06 0
c p weight -1772 0.99997999999999998 0
c p weight 1773 1 0
c p weight -1773 1 0
c p weight 1774 1 0
c p weight -1774 1 0
c p weight 1775 6.6666666666666675e-06 0
c p weight -1775 0.99997999999999998 0
c p weight 1776 1 0
c p weight -1776 1 0
c p weight 1777 1 0
c p weight -1777 1 0
c p weight 1778 6.6666666666666675e-06 0
c p weight -1778 0.99997999999999998 0
c p weight 1779 1 0
c p weight -1779 1 0
c p weight 1780 1 0
c p weight -1780 1 0
c p weight 1781 6.6666666666666675e-06 0
c p weight -1781 0.99997999999999998 0
c p weight 1782 1 0
c p weight -1782 1 0
c p weight 1783 1 0
c p weight -1783 1 0
c p weight 1784 6.6666666666666675e-06 0
c p weight -1784 0.99997999999999998 0
c p weight 1785 1 0
c p weight -1785 1 0
c p weight 1786 1 0
c p weight -1786 1 0
c p weight 1787 6.6666666666666675e-06 0
c p weight -1787 0.99997999999999998 0
c p weight 1788 1 0
c p weight -1788 1 0
c p weight 1789 1 0
c p weight -1789 1 0
c p weight 1790 6.6666666666666675e-06 0
c p weight -1790 0.99997999999999998 0
c p weight 1791 1 0
c p weight -1791 1 0
c p weight 1792 1 0
c p weight -1792 1 0
c p weight 1793 6.6666666666666675e-06 0
c p weight -1793 0.99997999999999998 0
c p weight 1794 1 0
c p weight -1794 1 0
c p weight 1795 1 0
c p weight -1795 1 0
c p weight 1796 6.6666666666666675e-06 0
c p weight -1796 0.99997999999999998 0
c p weight 1797 1 0
c p weight -1797 1 0
c p weight 1798 1 0
c p weight -1798 1 0
c p weight 1799 6.6666666666666675e-06 0
c p weight -1799 0.99997999999999998 0
c p weight 1800 1 0
c p weight -1800 1 0
c p weight 1801 1 0
c p weight -1801 1 0
c p weight 1802 6.6666666666666675e-06 0
c p weight -1802 0.99997999999999998 0
c p weight 1803 1 0
c p weight -1803 1 0
c p weight 1804 1 0
c p weight -1804 1 0
c p weight 1805 6.6666666666666675e-06 0
c p weight -1805 0.99997999999999998 0
c p weight 1806 1 0
c p weight -1806 1 0
c p weight 1807 1 0
c p weight -1807 1 0
c p weight 1808 6.6666666666666675e-06 0
c p weight -1808 0.99997999999999998 0
c p weight 1809 1 0
c p weight -1809 1 0
c p weight 1810 1 0
c p weight -1810 1 0
c p weight 1811 1.3333333333333334e-06 0
c p weight -1811 0.99997999999999998 0
c p weight 1812 1 0
c p weight -1812 1 0
c p weight 1813 1 0
c p weight -1813 1 0
c p weight 1814 1 0
c p weight -1814 1 0
c p weight 1815 1 0
c p weight -1815 1 0
c p weight 1816 6.6666666666666675e-06 0
c p weight -1816 0.99997999999999998 0
c p weight 1817 1 0
c p weight -1817 1 0
c p weight 1818 1 0
c p weight -1818 1 0
c p weight 1819 6.6666666666666675e-06 0
c p weight -1819 0.99997999999999998 0
c p weight 1820 1 0
c p weight -1820 1 0
c p weight 1821 1 0
c p weight -1821 1 0
c p weight 1822 6.6666666666666675e-06 0
c p weight -1822 0.99997999999999998 0
c p weight 1823 1 0
c p weight -1823 1 0
c p weight 1824 1 0
c p weight -1824 1 0
c p weight 1825 6.6666666666666675e-06 0
c p weight -1825 0.99997999999999998 0
c p weight 1826 1 0
c p weight -1826 1 0
c p weight 1827 1 0
c p weight -1827 1 0
c p weight 1828 6.6666666666666675e-06 0
c p weight -1828 0.99997999999999998 0
c p weight 1829 1 0
c p weight -1829 1 0
c p weight 1830 1 0
c p weight -1830 1 0
c p weight 1831 6.6666666666666675e-06 0
c p weight -1831 0.99997999999999998 0
c p weight 1832 1 0
c p weight -1832 1 0
c p weight 1833 1 0
c p weight -1833 1 0
c p weight 1834 6.6666666666666675e-06 0
c p weight -1834 0.99997999999999998 0
c p weight 1835 1 0
c p weight -1835 1 0
c p weight 1836 1 0
c p weight -1836 1 0
c p weight 1837 6.6666666666666675e-06 0
c p weight -1837 0.99997999999999998 0
c p weight 1838 1 0
c p weight -1838 1 0
c p weight 1839 1 0
c p weight -1839 1 0
c p weight 1840 6.6666666666666675e-06 0
c p weight -1840 0.99997999999999998 0
c p weight 1841 1 0
c p weight -1841 1 0
c p weight 1842 1 0
c p weight -1842 1 0
c p weight 1843 6.6666666666666675e-06 0
c p weight -1843 0.99997999999999998 0
c p weight 1844 1 0
c p weight -1844 1 0
c p weight 1845 1 0
c p weight -1845 1 0
c p weight 1846 6.6666666666666675e-06 0
c p weight -1846 0.99997999999999998 0
c p weight 1847 1 0
c p weight -1847 1 0
c p weight 1848 1 0
c p weight -1848 1 0
c p weight 1849 6.6666666666666675e-06 0
c p weight -1849 0.99997999999999998 0
c p weight 1850 1 0
c p weight -1850 1 0
c p weight 1851 1 0
c p weight -1851 1 0
c p weight 1852 6.6666666666666675e-06 0
c p weight -1852 0.99997999999999998 0
c p weight 1853 1 0
c p weight -1853 1 0
c p weight 1854 1 0
c p weight -1854 1 0
c p weight 1855 6.6666666666666675e-06 0
c p weight -1855 0.99997999999999998 0
c p weight 1856 1 0
c p weight -1856 1 0
c p weight 1857 1 0
c p weight -1857 1 0
c p weight 1858 6.6666666666666675e-06 0
c p weight -1858 0.99997999999999998 0
c p weight 1859 1 0
c p weight -1859 1 0
c p weight 1860 1 0
c p weight -1860 1 0
c p weight 1861 6.6666666666666675e-06 0
c p weight -1861 0.99997999999999998 0
c p weight 1862 1 0
c p weight -1862 1 0
c p weight 1863 1 0
c p weight -1863 1 0
c p weight 1864 6.6666666666666675e-06 0
c p weight -1864 0.99997999999999998 0
c p weight 1865 1 0
c p weight -1865 1 0
c p weight 1866 1 0
c p weight -1866 1 0
c p weight 1867 6.6666666666666675e-06 0
c p weight -1867 0.99997999999999998 0
c p weight 1868 1 0
c p weight -1868 1 0
c p weight 1869 1 0
c p weight -1869 1 0
c p weight 1870 6.6666666666666675e-06 0
c p weight -1870 0.99997999999999998 0
c p weight 1871 1 0
c p weight -1871 1 0
c p weight 1872 1 0
c p weight -1872 1 0
c p weight 1873 1.3333333333333334e-06 0
c p weight -1873 0.99997999999999998 0
c p weight 1874 1 0
c p weight -1874 1 0
c p weight 1875 1 0
c p weight -1875 1 0
c p weight 1876 1 0
c p weight -1876 1 0
c p weight 1877 1 0
c p weight -1877 1 0
c p weight 1878 6.6666666666666675e-06 0
c p weight -1878 0.99997999999999998 0
c p weight 1879 1 0
c p weight -1879 1 0
c p weight 1880 1 0
c p weight -1880 1 0
c p weight 1881 6.6666666666666675e-06 0
c p weight -1881 0.99997999999999998 0
c p weight 1882 1 0
c p weight -1882 1 0
c p weight 1883 1 0
c p weight -1883 1 0
c p weight 1884 6.6666666666666675e-06 0
c p weight -1884 0.99997999999999998 0
c p weight 1885 1 0
c p weight -1885 1 0
c p weight 1886 1 0
c p weight -1886 1 0
c p weight 1887 6.6666666666666675e-06 0
c p weight -1887 0.99997999999999998 0
c p weight 1888 1 0
c p weight -1888 1 0
c p weight 1889 1 0
c p weight -1889 1 0
c p weight 1890 6.6666666666666675e-06 0
c p weight -1890 0.99997999999999998 0
c p weight 1891 1 0
c p weight -1891 1 0
c p weight 1892 1 0
c p weight -1892 1 0
c p weight 1893 6.6666666666666675e-06 0
c p weight -1893 0.99997999999999998 0
c p weight 1894 1 0
c p weight -1894 1 0
c p weight 1895 1 0
c p weight -1895 1 0
c p weight 1896 6.6666666666666675e-06 0
c p weight -1896 0.99997999999999998 0
c p weight 1897 1 0
c p weight -1897 1 0
c p weight 1898 1 0
c p weight -1898 1 0
c p weight 1899 6.6666666666666675e-06 0
c p weight -1899 0.99997999999999998 0
c p weight 1900 1 0
c p weight -1900 1 0
c p weight 1901 1 0
c p weight -1901 1 0
c p weight 1902 6.6666666666666675e-06 0
c p weight -1902 0.99997999999999998 0
c p weight 1903 1 0
c p weight -1903 1 0
c p weight 1904 1 0
c p weight -1904 1 0
c p weight 1905 6.6666666666666675e-06 0
c p weight -1905 0.99997999999999998 0
c p weight 1906 1 0
c p weight -1906 1 0
c p weight 1907 1 0
c p weight -1907 1 0
c p weight 1908 6.6666666666666675e-06 0
c p weight -1908 0.99997999999999998 0
c p weight 1909 1 0
c p weight -1909 1 0
c p weight 1910 1 0
c p weight -1910 1 0
c p weight 1911 6.6666666666666675e-06 0
c p weight -1911 0.99997999999999998 0
c p weight 1912 1 0
c p weight -1912 1 0
c p weight 1913 1 0
c p weight -1913 1 0
c p weight 1914 6.6666666666666675e-06 0
c p weight -1914 0.99997999999999998 0
c p weight 1915 1 0
c p weight -1915 1 0
c p weight 1916 1 0
c p weight -1916 1 0
c p weight 1917 6.6666666666666675e-06 0
c p weight -1917 0.99997999999999998 0
c p weight 1918 1 0
c p weight -1918 1 0
c p weight 1919 1 0
c p weight -1919 1 0
c p weight 1920 6.6666666666666675e-06 0
c p weight -1920 0.99997999999999998 0
c p weight 1921 1 0
c p weight -1921 1 0
c p weight 1922 1 0
c p weight -1922 1 0
c p weight 1923 6.6666666666666675e-06 0
c p weight -1923 0.99997999999999998 0
c p weight 1924 1 0
c p weight -1924 1 0
c p weight 1925 1 0
c p weight -1925 1 0
c p weight 1926 6.6666666666666675e-06 0
c p weight -1926 0.99997999999999998 0
c p weight 1927 1 0
c p weight -1927 1 0
c p weight 1928 1 0
c p weight -1928 1 0
c p weight 1929 6.6666666666666675e-06 0
c p weight -1929 0.99997999999999998 0
c p weight 1930 1 0
c p weight -1930 1 0
c p weight 1931 1 0
c p weight -1931 1 0
c p weight 1932 6.6666666666666675e-06 0
c p weight -1932 0.99997999999999998 0
c p weight 1933 1 0
c p weight -1933 1 0
c p weight 1934 1 0
c p weight -1934 1 0
c p weight 1935 1.3333333333333334e-06 0
c p weight -1935 0.99997999999999998 0
c p weight 1936 1 0
c p weight -1936 1 0
c p weight 1937 1 0
c p weight -1937 1 0
c p weight 1938 1 0
c p weight -1938 1 0
c p weight 1939 1 0
c p weight -1939 1 0
c p weight 1940 6.6666666666666675e-06 0
c p weight -1940 0.99997999999999998 0
c p weight 1941 1 0
c p weight -1941 1 0
c p weight 1942 1 0
c p weight -1942 1 0
c p weight 1943 6.6666666666666675e-06 0
c p weight -1943 0.99997999999999998 0
c p weight 1944 1 0
c p weight -1944 1 0
c p weight 1945 1 0
c p weight -1945 1 0
c p weight 1946 6.6666666666666675e-06 0
c p weight -1946 0.99997999999999998 0
c p weight 1947 1 0
c p weight -1947 1 0
c p weight 1948 1 0
c p weight -1948 1 0
c p weight 1949 6.6666666666666675e-06 0
c p weight -1949 0.99997999999999998 0
c p weight 1950 1 0
c p weight -1950 1 0
c p weight 1951 1 0
c p weight -1951 1 0
c p weight 1952 6.6666666666666675e-06 0
c p weight -1952 0.99997999999999998 0
c p weight 1953 1 0
c p weight -1953 1 0
c p weight 1954 1 0
c p weight -1954 1 0
c p weight 1955 6.6666666666666675e-06 0
c p weight -1955 0.99997999999999998 0
c p weight 1956 1 0
c p weight -1956 1 0
c p weight 1957 1 0
c p weight -1957 1 0
c p weight 1958 6.6666666666666675e-06 0
c p weight -1958 0.99997999999999998 0
c p weight 1959 1 0
c p weight -1959 1 0
c p weight 1960 1 0
c p weight -1960 1 0
c p weight 1961 6.6666666666666675e-06 0
c p weight -1961 0.99997999999999998 0
c p weight 1962 1 0
c p weight -1962 1 0
c p weight 1963 1 0
c p weight -1963 1 0
c p weight 1964 6.6666666666666675e-06 0
c p weight -1964 0.99997999999999998 0
c p weight 1965 1 0
c p weight -1965 1 0
c p weight 1966 1 0
c p weight -1966 1 0
c p weight 1967 6.6666666666666675e-06 0
c p weight -1967 0.99997999999999998 0
c p weight 1968 1 0
c p weight -1968 1 0
c p weight 1969 1 0
c p weight -1969 1 0
c p weight 1970 6.6666666666666675e-06 0
c p weight -1970 0.99997999999999998 0
c p weight 1971 1 0
c p weight -1971 1 0
c p weight 1972 1 0
c p weight -1972 1 0
c p weight 1973 6.6666666666666675e-06 0
c p weight -1973 0.99997999999999998 0
c p weight 1974 1 0
c p weight -1974 1 0
c p weight 1975 1 0
c p weight -1975 1 0
c p weight 1976 6.6666666666666675e-06 0
c p weight -1976 0.99997999999999998 0
c p weight 1977 1 0
c p weight -1977 1 0
c p weight 1978 1 0
c p weight -1978 1 0
c p weight 1979 6.6666666666666675e-06 0
c p weight -1979 0.99997999999999998 0
c p weight 1980 1 0
c p weight -1980 1 0
c p weight 1981 1 0
c p weight -1981 1 0
c p weight 1982 6.6666666666666675e-06 0
c p weight -1982 0.99997999999999998 0
c p weight 1983 1 0
c p weight -1983 1 0
c p weight 1984 1 0
c p weight -1984 1 0
c p weight 1985 6.6666666666666675e-06 0
c p weight -1985 0.99997999999999998 0
c p weight 1986 1 0
c p weight -1986 1 0
c p weight 1987 1 0
c p weight -1987 1 0
c p weight 1988 6.6666666666666675e-06 0
c p weight -1988 0.99997999999999998 0
c p weight 1989 1 0
c p weight -1989 1 0
c p weight 1990 1 0
c p weight -1990 1 0
c p weight 1991 6.6666666666666675e-06 0
c p weight -1991 0.99997999999999998 0
c p weight 1992 1 0
c p weight -1992 1 0
c p weight 1993 1 0
c p weight -1993 1 0
c p weight 1994 6.6666666666666675e-06 0
c p weight -1994 0.99997999999999998 0
c p weight 1995 1 0
c p weight -1995 1 0
c p weight 1996 1 0
c p weight -1996 1 0
c p weight 1997 6.6666666666666675e-06 0
c p weight -1997 0.99997999999999998 0
c p weight 1998 1 0
c p weight -1998 1 0
c p weight 1999 1 0
c p weight -1999 1 0
c p weight 2000 6.6666666666666675e-06 0
c p weight -2000 0.99997999999999998 0
c p weight 2001 1 0
c p weight -2001 1 0
c p weight 2002 1 0
c p weight -2002 1 0
c p weight 2003 6.6666666666666675e-06 0
c p weight -2003 0.99997999999999998 0
c p weight 2004 1 0
c p weight -2004 1 0
c p weight 2005 1 0
c p weight -2005 1 0
c p weight 2006 6.6666666666666675e-06 0
c p weight -2006 0.99997999999999998 0
c p weight 2007 1 0
c p weight -2007 1 0
c p weight 2008 1 0
c p weight -2008 1 0
c p weight 2009 6.6666666666666675e-06 0
c p weight -2009 0.99997999999999998 0
c p weight 2010 1 0
c p weight -2010 1 0
c p weight 2011 1 0
c p weight -2011 1 0
c p weight 2012 6.6666666666666675e-06 0
c p weight -2012 0.99997999999999998 0
c p weight 2013 1 0
c p weight -2013 1 0
c p weight 2014 1 0
c p weight -2014 1 0
c p weight 2015 6.6666666666666675e-06 0
c p weight -2015 0.99997999999999998 0
c p weight 2016 1 0
c p weight -2016 1 0
c p weight 2017 1 0
c p weight -2017 1 0
c p weight 2018 6.6666666666666675e-06 0
c p weight -2018 0.99997999999999998 0
c p weight 2019 1 0
c p weight -2019 1 0
c p weight 2020 1 0
c p weight -2020 1 0
c p weight 2021 6.6666666666666675e-06 0
c p weight -2021 0.99997999999999998 0
c p weight 2022 1 0
c p weight -2022 1 0
c p weight 2023 1 0
c p weight -2023 1 0
c p weight 2024 6.6666666666666675e-06 0
c p weight -2024 0.99997999999999998 0
c p weight 2025 1 0
c p weight -2025 1 0
c p weight 2026 1 0
c p weight -2026 1 0
c p weight 2027 6.6666666666666675e-06 0
c p weight -2027 0.99997999999999998 0
c p weight 2028 1 0
c p weight -2028 1 0
c p weight 2029 1 0
c p weight -2029 1 0
c p weight 2030 6.6666666666666675e-06 0
c p weight -2030 0.99997999999999998 0
c p weight 2031 1 0
c p weight -2031 1 0
c p weight 2032 1 0
c p weight -2032 1 0
c p weight 2033 1.3333333333333335e-05 0
c p weight -2033 0.99998666666666669 0
c p weight 2034 1.3333333333333335e-05 0
c p weight -2034 0.99998666666666669 0
c p weight 2035 1.3333333333333335e-05 0
c p weight -2035 0.99998666666666669 0
c p weight 2036 1.3333333333333335e-05 0
c p weight -2036 0.99998666666666669 0
c p weight 2037 1.3333333333333335e-05 0
c p weight -2037 0.99998666666666669 0
c p weight 2038 1.3333333333333335e-05 0
c p weight -2038 0.99998666666666669 0
c p weight 2039 1.3333333333333335e-05 0
c p weight -2039 0.99998666666666669 0
c p weight 2040 1.3333333333333335e-05 0
c p weight -2040 0.99998666666666669 0
c p weight 2041 1.3333333333333334e-06 0
c p weight -2041 0.99997999999999998 0
c p weight 2042 1 0
c p weight -2042 1 0
c p weight 2043 1 0
c p weight -2043 1 0
c p weight 2044 1 0
c p weight -2044 1 0
c p weight 2045 1 0
c p weight -2045 1 0
c p weight 2046 6.6666666666666675e-06 0
c p weight -2046 0.99997999999999998 0
c p weight 2047 1 0
c p weight -2047 1 0
c p weight 2048 1 0
c p weight -2048 1 0
c p weight 2049 6.6666666666666675e-06 0
c p weight -2049 0.99997999999999998 0
c p weight 2050 1 0
c p weight -2050 1 0
c p weight 2051 1 0
c p weight -2051 1 0
c p weight 2052 6.6666666666666675e-06 0
c p weight -2052 0.99997999999999998 0
c p weight 2053 1 0
c p weight -2053 1 0
c p weight 2054 1 0
c p weight -2054 1 0
c p weight 2055 6.6666666666666675e-06 0
c p weight -2055 0.99997999999999998 0
c p weight 2056 1 0
c p weight -2056 1 0
c p weight 2057 1 0
c p weight -2057 1 0
c p weight 2058 6.6666666666666675e-06 0
c p weight -2058 0.99997999999999998 0
c p weight 2059 1 0
c p weight -2059 1 0
c p weight 2060 1 0
c p weight -2060 1 0
c p weight 2061 6.6666666666666675e-06 0
c p weight -2061 0.99997999999999998 0
c p weight 2062 1 0
c p weight -2062 1 0
c p weight 2063 1 0
c p weight -2063 1 0
c p weight 2064 6.6666666666666675e-06 0
c p weight -2064 0.99997999999999998 0
c p weight 2065 1 0
c p weight -2065 1 0
c p weight 2066 1 0
c p weight -2066 1 0
c p weight 2067 6.6666666666666675e-06 0
c p weight -2067 0.99997999999999998 0
c p weight 2068 1 0
c p weight -2068 1 0
c p weight 2069 1 0
c p weight -2069 1 0
c p weight 2070 6.6666666666666675e-06 0
c p weight -2070 0.99997999999999998 0
c p weight 2071 1 0
c p weight -2071 1 0
c p weight 2072 1 0
c p weight -2072 1 0
c p weight 2073 6.6666666666666675e-06 0
c p weight -2073 0.99997999999999998 0
c p weight 2074 1 0
c p weight -2074 1 0
c p weight 2075 1 0
c p weight -2075 1 0
c p weight 2076 6.6666666666666675e-06 0
c p weight -2076 0.99997999999999998 0
c p weight 2077 1 0
c p weight -2077 1 0
c p weight 2078 1 0
c p weight -2078 1 0
c p weight 2079 6.6666666666666675e-06 0
c p weight -2079 0.99997999999999998 0
c p weight 2080 1 0
c p weight -2080 1 0
c p weight 2081 1 0
c p weight -2081 1 0
c p weight 2082 6.6666666666666675e-06 0
c p weight -2082 0.99997999999999998 0
c p weight 2083 1 0
c p weight -2083 1 0
c p weight 2084 1 0
c p weight -2084 1 0
c p weight 2085 6.6666666666666675e-06 0
c p weight -2085 0.99997999999999998 0
c p weight 2086 1 0
c p weight -2086 1 0
c p weight 2087 1 0
c p weight -2087 1 0
c p weight 2088 6.6666666666666675e-06 0
c p weight -2088 0.99997999999999998 0
c p weight 2089 1 0
c p weight -2089 1 0
c p weight 2090 1 0
c p weight -2090 1 0
c p weight 2091 1.3333333333333334e-06 0
c p weight -2091 0.99997999999999998 0
c p weight 2092 1 0
c p weight -2092 1 0
c p weight 2093 1 0
c p weight -2093 1 0
c p weight 2094 1 0
c p weight -2094 1 0
c p weight 2095 1 0
c p weight -2095 1 0
c p weight 2096 6.6666666666666675e-06 0
c p weight -2096 0.99997999999999998 0
c p weight 2097 1 0
c p weight -2097 1 0
c p weight 2098 1 0
c p weight -2098 1 0
c p weight 2099 6.6666666666666675e-06 0
c p weight -2099 0.99997999999999998 0
c p weight 2100 1 0
c p weight -2100 1 0
c p weight 2101 1 0
c p weight -2101 1 0
c p weight 2102 6.6666666666666675e-06 0
c p weight -2102 0.99997999999999998 0
c p weight 2103 1 0
c p weight -2103 1 0
c p weight 2104 1 0
c p weight -2104 1 0
c p weight 2105 6.6666666666666675e-06 0
c p weight -2105 0.99997999999999998 0
c p weight 2106 1 0
c p weight -2106 1 0
c p weight 2107 1 0
c p weight -2107 1 0
c p weight 2108 6.6666666666666675e-06 0
c p weight -2108 0.99997999999999998 0
c p weight 2109 1 0
c p weight -2109 1 0
c p weight 2110 1 0
c p weight -2110 1 0
c p weight 2111 6.6666666666666675e-06 0
c p weight -2111 0.99997999999999998 0
c p weight 2112 1 0
c p weight -2112 1 0
c p weight 2113 1 0
c p weight -2113 1 0
c p weight 2114 6.6666666666666675e-06 0
c p weight -2114 0.99997999999999998 0
c p weight 2115 1 0
c p weight -2115 1 0
c p weight 2116 1 0
c p weight -2116 1 0
c p weight 2117 6.6666666666666675e-06 0
c p weight -2117 0.99997999999999998 0
c p weight 2118 1 0
c p weight -2118 1 0
c p weight 2119 1 0
c p weight -2119 1 0
c p weight 2120 6.6666666666666675e-06 0
c p weight -2120 0.99997999999999998 0
c p weight 2121 1 0
c p weight -2121 1 0
c p weight 2122 1 0
c p weight -2122 1 0
c p weight 2123 6.6666666666666675e-06 0
c p weight -2123 0.99997999999999998 0
c p weight 2124 1 0
c p weight -2124 1 0
c p weight 2125 1 0
c p weight -2125 1 0
c p weight 2126 6.6666666666666675e-06 0
c p weight -2126 0.99997999999999998 0
c p weight 2127 1 0
c p weight -2127 1 0
c p weight 2128 1 0
c p weight -2128 1 0
c p weight 2129 6.6666666666666675e-06 0
c p weight -2129 0.99997999999999998 0
c p weight 2130 1 0
c p weight -2130 1 0
c p weight 2131 1 0
c p weight -2131 1 0
c p weight 2132 6.6666666666666675e-06 0
c p weight -2132 0.99997999999999998 0
c p weight 2133 1 0
c p weight -2133 1 0
c p weight 2134 1 0
c p weight -2134 1 0
c p weight 2135 6.6666666666666675e-06 0
c p weight -2135 0.99997999999999998 0
c p weight 2136 1 0
c p weight -2136 1 0
c p weight 2137 1 0
c p weight -2137 1 0
c p weight 2138 6.6666666666666675e-06 0
c p weight -2138 0.99997999999999998 0
c p weight 2139 1 0
c p weight -2139 1 0
c p weight 2140 1 0
c p weight -2140 1 0
c p weight 2141 1.3333333333333334e-06 0
c p weight -2141 0.99997999999999998 0
c p weight 2142 1 0
c p weight -2142 1 0
c p weight 2143 1 0
c p weight -2143 1 0
c p weight 2144 1 0
c p weight -2144 1 0
c p weight 2145 1 0
c p weight -2145 1 0
c p weight 2146 6.6666666666666675e-06 0
c p weight -2146 0.99997999999999998 0
c p weight 2147 1 0
c p weight -2147 1 0
c p weight 2148 1 0
c p weight -2148 1 0
c p weight 2149 6.6666666666666675e-06 0
c p weight -2149 0.99997999999999998 0
c p weight 2150 1 0
c p weight -2150 1 0
c p weight 2151 1 0
c p weight -2151 1 0
c p weight 2152 6.6666666666666675e-06 0
c p weight -2152 0.99997999999999998 0
c p weight 2153 1 0
c p weight -2153 1 0
c p weight 2154 1 0
c p weight -2154 1 0
c p weight 2155 6.6666666666666675e-06 0
c p weight -2155 0.99997999999999998 0
c p weight 2156 1 0
c p weight -2156 1 0
c p weight 2157 1 0
c p weight -2157 1 0
c p weight 2158 6.6666666666666675e-06 0
c p weight -2158 0.99997999999999998 0
c p weight 2159 1 0
c p weight -2159 1 0
c p weight 2160 1 0
c p weight -2160 1 0
c p weight 2161 6.6666666666666675e-06 0
c p weight -2161 0.99997999999999998 0
c p weight 2162 1 0
c p weight -2162 1 0
c p weight 2163 1 0
c p weight -2163 1 0
c p weight 2164 6.6666666666666675e-06 0
c p weight -2164 0.99997999999999998 0
c p weight 2165 1 0
c p weight -2165 1 0
c p weight 2166 1 0
c p weight -2166 1 0
c p weight 2167 6.6666666666666675e-06 0
c p weight -2167 0.99997999999999998 0
c p weight 2168 1 0
c p weight -2168 1 0
c p weight 2169 1 0
c p weight -2169 1 0
c p weight 2170 6.6666666666666675e-06 0
c p weight -2170 0.99997999999999998 0
c p weight 2171 1 0
c p weight -2171 1 0
c p weight 2172 1 0
c p weight -2172 1 0
c p weight 2173 6.6666666666666675e-06 0
c p weight -2173 0.99997999999999998 0
c p weight 2174 1 0
c p weight -2174 1 0
c p weight 2175 1 0
c p weight -2175 1 0
c p weight 2176 6.6666666666666675e-06 0
c p weight -2176 0.99997999999999998 0
c p weight 2177 1 0
c p weight -2177 1 0
c p weight 2178 1 0
c p weight -2178 1 0
c p weight 2179 6.6666666666666675e-06 0
c p weight -2179 0.99997999999999998 0
c p weight 2180 1 0
c p weight -2180 1 0
c p weight 2181 1 0
c p weight -2181 1 0
c p weight 2182 6.6666666666666675e-06 0
c p weight -2182 0.99997999999999998 0
c p weight 2183 1 0
c p weight -2183 1 0
c p weight 2184 1 0
c p weight -2184 1 0
c p weight 2185 6.6666666666666675e-06 0
c p weight -2185 0.99997999999999998 0
c p weight 2186 1 0
c p weight -2186 1 0
c p weight 2187 1 0
c p weight -2187 1 0
c p weight 2188 6.6666666666666675e-06 0
c p weight -2188 0.99997999999999998 0
c p weight 2189 1 0
c p weight -2189 1 0
c p weight 2190 1 0
c p weight -2190 1 0
c p weight 2191 1.3333333333333334e-06 0
c p weight -2191 0.99997999999999998 0
c p weight 2192 1 0
c p weight -2192 1 0
c p weight 2193 1 0
c p weight -2193 1 0
c p weight 2194 1 0
c p weight -2194 1 0
c p weight 2195 1 0
c p weight -2195 1 0
c p weight 2196 6.6666666666666675e-06 0
c p weight -2196 0.99997999999999998 0
c p weight 2197 1 0
c p weight -2197 1 0
c p weight 2198 1 0
c p weight -2198 1 0
c p weight 2199 6.6666666666666675e-06 0
c p weight -2199 0.99997999999999998 0
c p weight 2200 1 0
c p weight -2200 1 0
c p weight 2201 1 0
c p weight -2201 1 0
c p weight 2202 6.6666666666666675e-06 0
c p weight -2202 0.99997999999999998 0
c p weight 2203 1 0
c p weight -2203 1 0
c p weight 2204 1 0
c p weight -2204 1 0
c p weight 2205 6.6666666666666675e-06 0
c p weight -2205 0.99997999999999998 0
c p weight 2206 1 0
c p weight -2206 1 0
c p weight 2207 1 0
c p weight -2207 1 0
c p weight 2208 6.6666666666666675e-06 0
c p weight -2208 0.99997999999999998 0
c p weight 2209 1 0
c p weight -2209 1 0
c p weight 2210 1 0
c p weight -2210 1 0
c p weight 2211 6.6666666666666675e-06 0
c p weight -2211 0.99997999999999998 0
c p weight 2212 1 0
c p weight -2212 1 0
c p weight 2213 1 0
c p weight -2213 1 0
c p weight 2214 6.6666666666666675e-06 0
c p weight -2214 0.99997999999999998 0
c p weight 2215 1 0
c p weight -2215 1 0
c p weight 2216 1 0
c p weight -2216 1 0
c p weight 2217 6.6666666666666675e-06 0
c p weight -2217 0.99997999999999998 0
c p weight 2218 1 0
c p weight -2218 1 0
c p weight 2219 1 0
c p weight -2219 1 0
c p weight 2220 6.6666666666666675e-06 0
c p weight -2220 0.99997999999999998 0
c p weight 2221 1 0
c p weight -2221 1 0
c p weight 2222 1 0
c p weight -2222 1 0
c p weight 2223 6.6666666666666675e-06 0
c p weight -2223 0.99997999999999998 0
c p weight 2224 1 0
c p weight -2224 1 0
c p weight 2225 1 0
c p weight -2225 1 0
c p weight 2226 6.6666666666666675e-06 0
c p weight -2226 0.99997999999999998 0
c p weight 2227 1 0
c p weight -2227 1 0
c p weight 2228 1 0
c p weight -2228 1 0
c p weight 2229 6.6666666666666675e-06 0
c p weight -2229 0.99997999999999998 0
c p weight 2230 1 0
c p weight -2230 1 0
c p weight 2231 1 0
c p weight -2231 1 0
c p weight 2232 6.6666666666666675e-06 0
c p weight -2232 0.99997999999999998 0
c p weight 2233 1 0
c p weight -2233 1 0
c p weight 2234 1 0
c p weight -2234 1 0
c p weight 2235 6.6666666666666675e-06 0
c p weight -2235 0.99997999999999998 0
c p weight 2236 1 0
c p weight -2236 1 0
c p weight 2237 1 0
c p weight -2237 1 0
c p weight 2238 6.6666666666666675e-06 0
c p weight -2238 0.99997999999999998 0
c p weight 2239 1 0
c p weight -2239 1 0
c p weight 2240 1 0
c p weight -2240 1 0
c p weight 2241 1.3333333333333334e-06 0
c p weight -2241 0.99997999999999998 0
c p weight 2242 1 0
c p weight -2242 1 0
c p weight 2243 1 0
c p weight -2243 1 0
c p weight 2244 1 0
c p weight -2244 1 0
c p weight 2245 1 0
c p weight -2245 1 0
c p weight 2246 6.6666666666666675e-06 0
c p weight -2246 0.99997999999999998 0
c p weight 2247 1 0
c p weight -2247 1 0
c p weight 2248 1 0
c p weight -2248 1 0
c p weight 2249 6.6666666666666675e-06 0
c p weight -2249 0.99997999999999998 0
c p weight 2250 1 0
c p weight -2250 1 0
c p weight 2251 1 0
c p weight -2251 1 0
c p weight 2252 6.6666666666666675e-06 0
c p weight -2252 0.99997999999999998 0
c p weight 2253 1 0
c p weight -2253 1 0
c p weight 2254 1 0
c p weight -2254 1 0
c p weight 2255 6.6666666666666675e-06 0
c p weight -2255 0.99997999999999998 0
c p weight 2256 1 0
c p weight -2256 1 0
c p weight 2257 1 0
c p weight -2257 1 0
c p weight 2258 6.6666666666666675e-06 0
c p weight -2258 0.99997999999999998 0
c p weight 2259 1 0
c p weight -2259 1 0
c p weight 2260 1 0
c p weight -2260 1 0
c p weight 2261 6.6666666666666675e-06 0
c p weight -2261 0.99997999999999998 0
c p weight 2262 1 0
c p weight -2262 1 0
c p weight 2263 1 0
c p weight -2263 1 0
c p weight 2264 6.6666666666666675e-06 0
c p weight -2264 0.99997999999999998 0
c p weight 2265 1 0
c p weight -2265 1 0
c p weight 2266 1 0
c p weight -2266 1 0
c p weight 2267 6.6666666666666675e-06 0
c p weight -2267 0.99997999999999998 0
c p weight 2268 1 0
c p weight -2268 1 0
c p weight 2269 1 0
c p weight -2269 1 0
c p weight 2270 6.6666666666666675e-06 0
c p weight -2270 0.99997999999999998 0
c p weight 2271 1 0
c p weight -2271 1 0
c p weight 2272 1 0
c p weight -2272 1 0
c p weight 2273 6.6666666666666675e-06 0
c p weight -2273 0.99997999999999998 0
c p weight 2274 1 0
c p weight -2274 1 0
c p weight 2275 1 0
c p weight -2275 1 0
c p weight 2276 6.6666666666666675e-06 0
c p weight -2276 0.99997999999999998 0
c p weight 2277 1 0
c p weight -2277 1 0
c p weight 2278 1 0
c p weight -2278 1 0
c p weight 2279 6.6666666666666675e-06 0
c p weight -2279 0.99997999999999998 0
c p weight 2280 1 0
c p weight -2280 1 0
c p weight 2281 1 0
c p weight -2281 1 0
c p weight 2282 6.6666666666666675e-06 0
c p weight -2282 0.99997999999999998 0
c p weight 2283 1 0
c p weight -2283 1 0
c p weight 2284 1 0
c p weight -2284 1 0
c p weight 2285 6.6666666666666675e-06 0
c p weight -2285 0.99997999999999998 0
c p weight 2286 1 0
c p weight -2286 1 0
c p weight 2287 1 0
c p weight -2287 1 0
c p weight 2288 6.6666666666666675e-06 0
c p weight -2288 0.99997999999999998 0
c p weight 2289 1 0
c p weight -2289 1 0
c p weight 2290 1 0
c p weight -2290 1 0
c p weight 2291 1.3333333333333334e-06 0
c p weight -2291 0.99997999999999998 0
c p weight 2292 1 0
c p weight -2292 1 0
c p weight 2293 1 0
c p weight -2293 1 0
c p weight 2294 1 0
c p weight -2294 1 0
c p weight 2295 1 0
c p weight -2295 1 0
c p weight 2296 6.6666666666666675e-06 0
c p weight -2296 0.99997999999999998 0
c p weight 2297 1 0
c p weight -2297 1 0
c p weight 2298 1 0
c p weight -2298 1 0
c p weight 2299 6.6666666666666675e-06 0
c p weight -2299 0.99997999999999998 0
c p weight 2300 1 0
c p weight -2300 1 0
c p weight 2301 1 0
c p weight -2301 1 0
c p weight 2302 6.6666666666666675e-06 0
c p weight -2302 0.99997999999999998 0
c p weight 2303 1 0
c p weight -2303 1 0
c p weight 2304 1 0
c p weight -2304 1 0
c p weight 2305 6.6666666666666675e-06 0
c p weight -2305 0.99997999999999998 0
c p weight 2306 1 0
c p weight -2306 1 0
c p weight 2307 1 0
c p weight -2307 1 0
c p weight 2308 6.6666666666666675e-06 0
c p weight -2308 0.99997999999999998 0
c p weight 2309 1 0
c p weight -2309 1 0
c p weight 2310 1 0
c p weight -2310 1 0
c p weight 2311 6.6666666666666675e-06 0
c p weight -2311 0.99997999999999998 0
c p weight 2312 1 0
c p weight -2312 1 0
c p weight 2313 1 0
c p weight -2313 1 0
c p weight 2314 6.6666666666666675e-06 0
c p weight -2314 0.99997999999999998 0
c p weight 2315 1 0
c p weight -2315 1 0
c p weight 2316 1 0
c p weight -2316 1 0
c p weight 2317 6.6666666666666675e-06 0
c p weight -2317 0.99997999999999998 0
c p weight 2318 1 0
c p weight -2318 1 0
c p weight 2319 1 0
c p weight -2319 1 0
c p weight 2320 6.6666666666666675e-06 0
c p weight -2320 0.99997999999999998 0
c p weight 2321 1 0
c p weight -2321 1 0
c p weight 2322 1 0
c p weight -2322 1 0
c p weight 2323 6.6666666666666675e-06 0
c p weight -2323 0.99997999999999998 0
c p weight 2324 1 0
c p weight -2324 1 0
c p weight 2325 1 0
c p weight -2325 1 0
c p weight 2326 6.6666666666666675e-06 0
c p weight -2326 0.99997999999999998 0
c p weight 2327 1 0
c p weight -2327 1 0
c p weight 2328 1 0
c p weight -2328 1 0
c p weight 2329 6.6666666666666675e-06 0
c p weight -2329 0.99997999999999998 0
c p weight 2330 1 0
c p weight -2330 1 0
c p weight 2331 1 0
c p weight -2331 1 0
c p weight 2332 6.6666666666666675e-06 0
c p weight -2332 0.99997999999999998 0
c p weight 2333 1 0
c p weight -2333 1 0
c p weight 2334 1 0
c p weight -2334 1 0
c p weight 2335 6.6666666666666675e-06 0
c p weight -2335 0.99997999999999998 0
c p weight 2336 1 0
c p weight -2336 1 0
c p weight 2337 1 0
c p weight -2337 1 0
c p weight 2338 6.6666666666666675e-06 0
c p weight -2338 0.99997999999999998 0
c p weight 2339 1 0
c p weight -2339 1 0
c p weight 2340 1 0
c p weight -2340 1 0
c p weight 2341 1.3333333333333334e-06 0
c p weight -2341 0.99997999999999998 0
c p weight 2342 1 0
c p weight -2342 1 0
c p weight 2343 1 0
c p weight -2343 1 0
c p weight 2344 1 0
c p weight -2344 1 0
c p weight 2345 1 0
c p weight -2345 1 0
c p weight 2346 6.6666666666666675e-06 0
c p weight -2346 0.99997999999999998 0
c p weight 2347 1 0
c p weight -2347 1 0
c p weight 2348 1 0
c p weight -2348 1 0
c p weight 2349 6.6666666666666675e-06 0
c p weight -2349 0.99997999999999998 0
c p weight 2350 1 0
c p weight -2350 1 0
c p weight 2351 1 0
c p weight -2351 1 0
c p weight 2352 6.6666666666666675e-06 0
c p weight -2352 0.99997999999999998 0
c p weight 2353 1 0
c p weight -2353 1 0
c p weight 2354 1 0
c p weight -2354 1 0
c p weight 2355 6.6666666666666675e-06 0
c p weight -2355 0.99997999999999998 0
c p weight 2356 1 0
c p weight -2356 1 0
c p weight 2357 1 0
c p weight -2357 1 0
c p weight 2358 6.6666666666666675e-06 0
c p weight -2358 0.99997999999999998 0
c p weight 2359 1 0
c p weight -2359 1 0
c p weight 2360 1 0
c p weight -2360 1 0
c p weight 2361 6.6666666666666675e-06 0
c p weight -2361 0.99997999999999998 0
c p weight 2362 1 0
c p weight -2362 1 0
c p weight 2363 1 0
c p weight -2363 1 0
c p weight 2364 6.6666666666666675e-06 0
c p weight -2364 0.99997999999999998 0
c p weight 2365 1 0
c p weight -2365 1 0
c p weight 2366 1 0
c p weight -2366 1 0
c p weight 2367 6.6666666666666675e-06 0
c p weight -2367 0.99997999999999998 0
c p weight 2368 1 0
c p weight -2368 1 0
c p weight 2369 1 0
c p weight -2369 1 0
c p weight 2370 6.6666666666666675e-06 0
c p weight -2370 0.99997999999999998 0
c p weight 2371 1 0
c p weight -2371 1 0
c p weight 2372 1 0
c p weight -2372 1 0
c p weight 2373 6.6666666666666675e-06 0
c p weight -2373 0.99997999999999998 0
c p weight 2374 1 0
c p weight -2374 1 0
c p weight 2375 1 0
c p weight -2375 1 0
c p weight 2376 6.6666666666666675e-06 0
c p weight -2376 0.99997999999999998 0
c p weight 2377 1 0
c p weight -2377 1 0
c p weight 2378 1 0
c p weight -2378 1 0
c p weight 2379 6.6666666666666675e-06 0
c p weight -2379 0.99997999999999998 0
c p weight 2380 1 0
c p weight -2380 1 0
c p weight 2381 1 0
c p weight -2381 1 0
c p weight 2382 6.6666666666666675e-06 0
c p weight -2382 0.99997999999999998 0
c p weight 2383 1 0
c p weight -2383 1 0
c p weight 2384 1 0
c p weight -2384 1 0
c p weight 2385 6.6666666666666675e-06 0
c p weight -2385 0.99997999999999998 0
c p weight 2386 1 0
c p weight -2386 1 0
c p weight 2387 1 0
c p weight -2387 1 0
c p weight 2388 6.6666666666666675e-06 0
c p weight -2388 0.99997999999999998 0
c p weight 2389 1 0
c p weight -2389 1 0
c p weight 2390 1 0
c p weight -2390 1 0
c p weight 2391 1.3333333333333334e-06 0
c p weight -2391 0.99997999999999998 0
c p weight 2392 1 0
c p weight -2392 1 0
c p weight 2393 1 0
c p weight -2393 1 0
c p weight 2394 1 0
c p weight -2394 1 0
c p weight 2395 1 0
c p weight -2395 1 0
c p weight 2396 6.6666666666666675e-06 0
c p weight -2396 0.99997999999999998 0
c p weight 2397 1 0
c p weight -2397 1 0
c p weight 2398 1 0
c p weight -2398 1 0
c p weight 2399 6.6666666666666675e-06 0
c p weight -2399 0.99997999999999998 0
c p weight 2400 1 0
c p weight -2400 1 0
c p weight 2401 1 0
c p weight -2401 1 0
c p weight 2402 6.6666666666666675e-06 0
c p weight -2402 0.99997999999999998 0
c p weight 2403 1 0
c p weight -2403 1 0
c p weight 2404 1 0
c p weight -2404 1 0
c p weight 2405 6.6666666666666675e-06 0
c p weight -2405 0.99997999999999998 0
c p weight 2406 1 0
c p weight -2406 1 0
c p weight 2407 1 0
c p weight -2407 1 0
c p weight 2408 6.6666666666666675e-06 0
c p weight -2408 0.99997999999999998 0
c p weight 2409 1 0
c p weight -2409 1 0
c p weight 2410 1 0
c p weight -2410 1 0
c p weight 2411 6.6666666666666675e-06 0
c p weight -2411 0.99997999999999998 0
c p weight 2412 1 0
c p weight -2412 1 0
c p weight 2413 1 0
c p weight -2413 1 0
c p weight 2414 6.6666666666666675e-06 0
c p weight -2414 0.99997999999999998 0
c p weight 2415 1 0
c p weight -2415 1 0
c p weight 2416 1 0
c p weight -2416 1 0
c p weight 2417 6.6666666666666675e-06 0
c p weight -2417 0.99997999999999998 0
c p weight 2418 1 0
c p weight -2418 1 0
c p weight 2419 1 0
c p weight -2419 1 0
c p weight 2420 6.6666666666666675e-06 0
c p weight -2420 0.99997999999999998 0
c p weight 2421 1 0
c p weight -2421 1 0
c p weight 2422 1 0
c p weight -2422 1 0
c p weight 2423 6.6666666666666675e-06 0
c p weight -2423 0.99997999999999998 0
c p weight 2424 1 0
c p weight -2424 1 0
c p weight 2425 1 0
c p weight -2425 1 0
c p weight 2426 6.6666666666666675e-06 0
c p weight -2426 0.99997999999999998 0
c p weight 2427 1 0
c p weight -2427 1 0
c p weight 2428 1 0
c p weight -2428 1 0
c p weight 2429 6.6666666666666675e-06 0
c p weight -2429 0.99997999999999998 0
c p weight 2430 1 0
c p weight -2430 1 0
c p weight 2431 1 0
c p weight -2431 1 0
c p weight 2432 6.6666666666666675e-06 0
c p weight -2432 0.99997999999999998 0
c p weight 2433 1 0
c p weight -2433 1 0
c p weight 2434 1 0
c p weight -2434 1 0
c p weight 2435 6.6666666666666675e-06 0
c p weight -2435 0.99997999999999998 0
c p weight 2436 1 0
c p weight -2436 1 0
c p weight 2437 1 0
c p weight -2437 1 0
c p weight 2438 6.6666666666666675e-06 0
c p weight -2438 0.99997999999999998 0
c p weight 2439 1 0
c p weight -2439 1 0
c p weight 2440 1 0
c p weight -2440 1 0
c p weight 2441 1.3333333333333334e-06 0
c p weight -2441 0.99997999999999998 0
c p weight 2442 1 0
c p weight -2442 1 0
c p weight 2443 1 0
c p weight -2443 1 0
c p weight 2444 1 0
c p weight -2444 1 0
c p weight 2445 1 0
c p weight -2445 1 0
c p weight 2446 6.6666666666666675e-06 0
c p weight -2446 0.99997999999999998 0
c p weight 2447 1 0
c p weight -2447 1 0
c p weight 2448 1 0
c p weight -2448 1 0
c p weight 2449 6.6666666666666675e-06 0
c p weight -2449 0.99997999999999998 0
c p weight 2450 1 0
c p weight -2450 1 0
c p weight 2451 1 0
c p weight -2451 1 0
c p weight 2452 6.6666666666666675e-06 0
c p weight -2452 0.99997999999999998 0
c p weight 2453 1 0
c p weight -2453 1 0
c p weight 2454 1 0
c p weight -2454 1 0
c p weight 2455 6.6666666666666675e-06 0
c p weight -2455 0.99997999999999998 0
c p weight 2456 1 0
c p weight -2456 1 0
c p weight 2457 1 0
c p weight -2457 1 0
c p weight 2458 6.6666666666666675e-06 0
c p weight -2458 0.99997999999999998 0
c p weight 2459 1 0
c p weight -2459 1 0
c p weight 2460 1 0
c p weight -2460 1 0
c p weight 2461 6.6666666666666675e-06 0
c p weight -2461 0.99997999999999998 0
c p weight 2462 1 0
c p weight -2462 1 0
c p weight 2463 1 0
c p weight -2463 1 0
c p weight 2464 6.6666666666666675e-06 0
c p weight -2464 0.99997999999999998 0
c p weight 2465 1 0
c p weight -2465 1 0
c p weight 2466 1 0
c p weight -2466 1 0
c p weight 2467 6.6666666666666675e-06 0
c p weight -2467 0.99997999999999998 0
c p weight 2468 1 0
c p weight -2468 1 0
c p weight 2469 1 0
c p weight -2469 1 0
c p weight 2470 6.6666666666666675e-06 0
c p weight -2470 0.99997999999999998 0
c p weight 2471 1 0
c p weight -2471 1 0
c p weight 2472 1 0
c p weight -2472 1 0
c p weight 2473 6.6666666666666675e-06 0
c p weight -2473 0.99997999999999998 0
c p weight 2474 1 0
c p weight -2474 1 0
c p weight 2475 1 0
c p weight -2475 1 0
c p weight 2476 6.6666666666666675e-06 0
c p weight -2476 0.99997999999999998 0
c p weight 2477 1 0
c p weight -2477 1 0
c p weight 2478 1 0
c p weight -2478 1 0
c p weight 2479 6.6666666666666675e-06 0
c p weight -2479 0.99997999999999998 0
c p weight 2480 1 0
c p weight -2480 1 0
c p weight 2481 1 0
c p weight -2481 1 0
c p weight 2482 6.6666666666666675e-06 0
c p weight -2482 0.99997999999999998 0
c p weight 2483 1 0
c p weight -2483 1 0
c p weight 2484 1 0
c p weight -2484 1 0
c p weight 2485 6.6666666666666675e-06 0
c p weight -2485 0.99997999999999998 0
c p weight 2486 1 0
c p weight -2486 1 0
c p weight 2487 1 0
c p weight -2487 1 0
c p weight 2488 6.6666666666666675e-06 0
c p weight -2488 0.99997999999999998 0
c p weight 2489 1 0
c p weight -2489 1 0
c p weight 2490 1 0
c p weight -2490 1 0
c p weight 2491 1.3333333333333334e-06 0
c p weight -2491 0.99997999999999998 0
c p weight 2492 1 0
c p weight -2492 1 0
c p weight 2493 1 0
c p weight -2493 1 0
c p weight 2494 1 0
c p weight -2494 1 0
c p weight 2495 1 0
c p weight -2495 1 0
c p weight 2496 6.6666666666666675e-06 0
c p weight -2496 0.99997999999999998 0
c p weight 2497 1 0
c p weight -2497 1 0
c p weight 2498 1 0
c p weight -2498 1 0
c p weight 2499 6.6666666666666675e-06 0
c p weight -2499 0.99997999999999998 0
c p weight 2500 1 0
c p weight -2500 1 0
c p weight 2501 1 0
c p weight -2501 1 0
c p weight 2502 6.6666666666666675e-06 0
c p weight -2502 0.99997999999999998 0
c p weight 2503 1 0
c p weight -2503 1 0
c p weight 2504 1 0
c p weight -2504 1 0
c p weight 2505 6.6666666666666675e-06 0
c p weight -2505 0.99997999999999998 0
c p weight 2506 1 0
c p weight -2506 1 0
c p weight 2507 1 0
c p weight -2507 1 0
c p weight 2508 6.6666666666666675e-06 0
c p weight -2508 0.99997999999999998 0
c p weight 2509 1 0
c p weight -2509 1 0
c p weight 2510 1 0
c p weight -2510 1 0
c p weight 2511 6.6666666666666675e-06 0
c p weight -2511 0.99997999999999998 0
c p weight 2512 1 0
c p weight -2512 1 0
c p weight 2513 1 0
c p weight -2513 1 0
c p weight 2514 6.6666666666666675e-06 0
c p weight -2514 0.99997999999999998 0
c p weight 2515 1 0
c p weight -2515 1 0
c p weight 2516 1 0
c p weight -2516 1 0
c p weight 2517 6.6666666666666675e-06 0
c p weight -2517 0.99997999999999998 0
c p weight 2518 1 0
c p weight -2518 1 0
c p weight 2519 1 0
c p weight -2519 1 0
c p weight 2520 6.6666666666666675e-06 0
c p weight -2520 0.99997999999999998 0
c p weight 2521 1 0
c p weight -2521 1 0
c p weight 2522 1 0
c p weight -2522 1 0
c p weight 2523 6.6666666666666675e-06 0
c p weight -2523 0.99997999999999998 0
c p weight 2524 1 0
c p weight -2524 1 0
c p weight 2525 1 0
c p weight -2525 1 0
c p weight 2526 6.6666666666666675e-06 0
c p weight -2526 0.99997999999999998 0
c p weight 2527 1 0
c p weight -2527 1 0
c p weight 2528 1 0
c p weight -2528 1 0
c p weight 2529 6.6666666666666675e-06 0
c p weight -2529 0.99997999999999998 0
c p weight 2530 1 0
c p weight -2530 1 0
c p weight 2531 1 0
c p weight -2531 1 0
c p weight 2532 6.6666666666666675e-06 0
c p weight -2532 0.99997999999999998 0
c p weight 2533 1 0
c p weight -2533 1 0
c p weight 2534 1 0
c p weight -2534 1 0
c p weight 2535 6.6666666666666675e-06 0
c p weight -2535 0.99997999999999998 0
c p weight 2536 1 0
c p weight -2536 1 0
c p weight 2537 1 0
c p weight -2537 1 0
c p weight 2538 6.6666666666666675e-06 0
c p weight -2538 0.99997999999999998 0
c p weight 2539 1 0
c p weight -2539 1 0
c p weight 2540 1 0
c p weight -2540 1 0
c p weight 2541 1.3333333333333334e-06 0
c p weight -2541 0.99997999999999998 0
c p weight 2542 1 0
c p weight -2542 1 0
c p weight 2543 1 0
c p weight -2543 1 0
c p weight 2544 1 0
c p weight -2544 1 0
c p weight 2545 1 0
c p weight -2545 1 0
c p weight 2546 6.6666666666666675e-06 0
c p weight -2546 0.99997999999999998 0
c p weight 2547 1 0
c p weight -2547 1 0
c p weight 2548 1 0
c p weight -2548 1 0
c p weight 2549 6.6666666666666675e-06 0
c p weight -2549 0.99997999999999998 0
c p weight 2550 1 0
c p weight -2550 1 0
c p weight 2551 1 0
c p weight -2551 1 0
c p weight 2552 6.6666666666666675e-06 0
c p weight -2552 0.99997999999999998 0
c p weight 2553 1 0
c p weight -2553 1 0
c p weight 2554 1 0
c p weight -2554 1 0
c p weight 2555 6.6666666666666675e-06 0
c p weight -2555 0.99997999999999998 0
c p weight 2556 1 0
c p weight -2556 1 0
c p weight 2557 1 0
c p weight -2557 1 0
c p weight 2558 6.6666666666666675e-06 0
c p weight -2558 0.99997999999999998 0
c p weight 2559 1 0
c p weight -2559 1 0
c p weight 2560 1 0
c p weight -2560 1 0
c p weight 2561 6.6666666666666675e-06 0
c p weight -2561 0.99997999999999998 0
c p weight 2562 1 0
c p weight -2562 1 0
c p weight 2563 1 0
c p weight -2563 1 0
c p weight 2564 6.6666666666666675e-06 0
c p weight -2564 0.99997999999999998 0
c p weight 2565 1 0
c p weight -2565 1 0
c p weight 2566 1 0
c p weight -2566 1 0
c p weight 2567 6.6666666666666675e-06 0
c p weight -2567 0.99997999999999998 0
c p weight 2568 1 0
c p weight -2568 1 0
c p weight 2569 1 0
c p weight -2569 1 0
c p weight 2570 6.6666666666666675e-06 0
c p weight -2570 0.99997999999999998 0
c p weight 2571 1 0
c p weight -2571 1 0
c p weight 2572 1 0
c p weight -2572 1 0
c p weight 2573 6.6666666666666675e-06 0
c p weight -2573 0.99997999999999998 0
c p weight 2574 1 0
c p weight -2574 1 0
c p weight 2575 1 0
c p weight -2575 1 0
c p weight 2576 6.6666666666666675e-06 0
c p weight -2576 0.99997999999999998 0
c p weight 2577 1 0
c p weight -2577 1 0
c p weight 2578 1 0
c p weight -2578 1 0
c p weight 2579 6.6666666666666675e-06 0
c p weight -2579 0.99997999999999998 0
c p weight 2580 1 0
c p weight -2580 1 0
c p weight 2581 1 0
c p weight -2581 1 0
c p weight 2582 6.6666666666666675e-06 0
c p weight -2582 0.99997999999999998 0
c p weight 2583 1 0
c p weight -2583 1 0
c p weight 2584 1 0
c p weight -2584 1 0
c p weight 2585 6.6666666666666675e-06 0
c p weight -2585 0.99997999999999998 0
c p weight 2586 1 0
c p weight -2586 1 0
c p weight 2587 1 0
c p weight -2587 1 0
c p weight 2588 6.6666666666666675e-06 0
c p weight -2588 0.99997999999999998 0
c p weight 2589 1 0
c p weight -2589 1 0
c p weight 2590 1 0
c p weight -2590 1 0
c p weight 2591 1.3333333333333334e-06 0
c p weight -2591 0.99997999999999998 0
c p weight 2592 1 0
c p weight -2592 1 0
c p weight 2593 1 0
c p weight -2593 1 0
c p weight 2594 1 0
c p weight -2594 1 0
c p weight 2595 1 0
c p weight -2595 1 0
c p weight 2596 6.6666666666666675e-06 0
c p weight -2596 0.99997999999999998 0
c p weight 2597 1 0
c p weight -2597 1 0
c p weight 2598 1 0
c p weight -2598 1 0
c p weight 2599 6.6666666666666675e-06 0
c p weight -2599 0.99997999999999998 0
c p weight 2600 1 0
c p weight -2600 1 0
c p weight 2601 1 0
c p weight -2601 1 0
c p weight 2602 6.6666666666666675e-06 0
c p weight -2602 0.99997999999999998 0
c p weight 2603 1 0
c p weight -2603 1 0
c p weight 2604 1 0
c p weight -2604 1 0
c p weight 2605 6.6666666666666675e-06 0
c p weight -2605 0.99997999999999998 0
c p weight 2606 1 0
c p weight -2606 1 0
c p weight 2607 1 0
c p weight -2607 1 0
c p weight 2608 6.6666666666666675e-06 0
c p weight -2608 0.99997999999999998 0
c p weight 2609 1 0
c p weight -2609 1 0
c p weight 2610 1 0
c p weight -2610 1 0
c p weight 2611 6.6666666666666675e-06 0
c p weight -2611 0.99997999999999998 0
c p weight 2612 1 0
c p weight -2612 1 0
c p weight 2613 1 0
c p weight -2613 1 0
c p weight 2614 6.6666666666666675e-06 0
c p weight -2614 0.99997999999999998 0
c p weight 2615 1 0
c p weight -2615 1 0
c p weight 2616 1 0
c p weight -2616 1 0
c p weight 2617 6.6666666666666675e-06 0
c p weight -2617 0.99997999999999998 0
c p weight 2618 1 0
c p weight -2618 1 0
c p weight 2619 1 0
c p weight -2619 1 0
c p weight 2620 6.6666666666666675e-06 0
c p weight -2620 0.99997999999999998 0
c p weight 2621 1 0
c p weight -2621 1 0
c p weight 2622 1 0
c p weight -2622 1 0
c p weight 2623 6.6666666666666675e-06 0
c p weight -2623 0.99997999999999998 0
c p weight 2624 1 0
c p weight -2624 1 0
c p weight 2625 1 0
c p weight -2625 1 0
c p weight 2626 6.6666666666666675e-06 0
c p weight -2626 0.99997999999999998 0
c p weight 2627 1 0
c p weight -2627 1 0
c p weight 2628 1 0
c p weight -2628 1 0
c p weight 2629 6.6666666666666675e-06 0
c p weight -2629 0.99997999999999998 0
c p weight 2630 1 0
c p weight -2630 1 0
c p weight 2631 1 0
c p weight -2631 1 0
c p weight 2632 6.6666666666666675e-06 0
c p weight -2632 0.99997999999999998 0
c p weight 2633 1 0
c p weight -2633 1 0
c p weight 2634 1 0
c p weight -2634 1 0
c p weight 2635 6.6666666666666675e-06 0
c p weight -2635 0.99997999999999998 0
c p weight 2636 1 0
c p weight -2636 1 0
c p weight 2637 1 0
c p weight -2637 1 0
c p weight 2638 6.6666666666666675e-06 0
c p weight -2638 0.99997999999999998 0
c p weight 2639 1 0
c p weight -2639 1 0
c p weight 2640 1 0
c p weight -2640 1 0
c p weight 2641 1.3333333333333334e-06 0
c p weight -2641 0.99997999999999998 0
c p weight 2642 1 0
c p weight -2642 1 0
c p weight 2643 1 0
c p weight -2643 1 0
c p weight 2644 1 0
c p weight -2644 1 0
c p weight 2645 1 0
c p weight -2645 1 0
c p weight 2646 6.6666666666666675e-06 0
c p weight -2646 0.99997999999999998 0
c p weight 2647 1 0
c p weight -2647 1 0
c p weight 2648 1 0
c p weight -2648 1 0
c p weight 2649 6.6666666666666675e-06 0
c p weight -2649 0.99997999999999998 0
c p weight 2650 1 0
c p weight -2650 1 0
c p weight 2651 1 0
c p weight -2651 1 0
c p weight 2652 6.6666666666666675e-06 0
c p weight -2652 0.99997999999999998 0
c p weight 2653 1 0
c p weight -2653 1 0
c p weight 2654 1 0
c p weight -2654 1 0
c p weight 2655 6.6666666666666675e-06 0
c p weight -2655 0.99997999999999998 0
c p weight 2656 1 0
c p weight -2656 1 0
c p weight 2657 1 0
c p weight -2657 1 0
c p weight 2658 6.6666666666666675e-06 0
c p weight -2658 0.99997999999999998 0
c p weight 2659 1 0
c p weight -2659 1 0
c p weight 2660 1 0
c p weight -2660 1 0
c p weight 2661 6.6666666666666675e-06 0
c p weight -2661 0.99997999999999998 0
c p weight 2662 1 0
c p weight -2662 1 0
c p weight 2663 1 0
c p weight -2663 1 0
c p weight 2664 6.6666666666666675e-06 0
c p weight -2664 0.99997999999999998 0
c p weight 2665 1 0
c p weight -2665 1 0
c p weight 2666 1 0
c p weight -2666 1 0
c p weight 2667 6.6666666666666675e-06 0
c p weight -2667 0.99997999999999998 0
c p weight 2668 1 0
c p weight -2668 1 0
c p weight 2669 1 0
c p weight -2669 1 0
c p weight 2670 6.6666666666666675e-06 0
c p weight -2670 0.99997999999999998 0
c p weight 2671 1 0
c p weight -2671 1 0
c p weight 2672 1 0
c p weight -2672 1 0
c p weight 2673 6.6666666666666675e-06 0
c p weight -2673 0.99997999999999998 0
c p weight 2674 1 0
c p weight -2674 1 0
c p weight 2675 1 0
c p weight -2675 1 0
c p weight 2676 6.6666666666666675e-06 0
c p weight -2676 0.99997999999999998 0
c p weight 2677 1 0
c p weight -2677 1 0
c p weight 2678 1 0
c p weight -2678 1 0
c p weight 2679 6.6666666666666675e-06 0
c p weight -2679 0.99997999999999998 0
c p weight 2680 1 0
c p weight -2680 1 0
c p weight 2681 1 0
c p weight -2681 1 0
c p weight 2682 6.6666666666666675e-06 0
c p weight -2682 0.99997999999999998 0
c p weight 2683 1 0
c p weight -2683 1 0
c p weight 2684 1 0
c p weight -2684 1 0
c p weight 2685 6.6666666666666675e-06 0
c p weight -2685 0.99997999999999998 0
c p weight 2686 1 0
c p weight -2686 1 0
c p weight 2687 1 0
c p weight -2687 1 0
c p weight 2688 6.6666666666666675e-06 0
c p weight -2688 0.99997999999999998 0
c p weight 2689 1 0
c p weight -2689 1 0
c p weight 2690 1 0
c p weight -2690 1 0
c p weight 2691 1.3333333333333334e-06 0
c p weight -2691 0.99997999999999998 0
c p weight 2692 1 0
c p weight -2692 1 0
c p weight 2693 1 0
c p weight -2693 1 0
c p weight 2694 1 0
c p weight -2694 1 0
c p weight 2695 1 0
c p weight -2695 1 0
c p weight 2696 6.6666666666666675e-06 0
c p weight -2696 0.99997999999999998 0
c p weight 2697 1 0
c p weight -2697 1 0
c p weight 2698 1 0
c p weight -2698 1 0
c p weight 2699 6.6666666666666675e-06 0
c p weight -2699 0.99997999999999998 0
c p weight 2700 1 0
c p weight -2700 1 0
c p weight 2701 1 0
c p weight -2701 1 0
c p weight 2702 6.6666666666666675e-06 0
c p weight -2702 0.99997999999999998 0
c p weight 2703 1 0
c p weight -2703 1 0
c p weight 2704 1 0
c p weight -2704 1 0
c p weight 2705 6.6666666666666675e-06 0
c p weight -2705 0.99997999999999998 0
c p weight 2706 1 0
c p weight -2706 1 0
c p weight 2707 1 0
c p weight -2707 1 0
c p weight 2708 6.6666666666666675e-06 0
c p weight -2708 0.99997999999999998 0
c p weight 2709 1 0
c p weight -2709 1 0
c p weight 2710 1 0
c p weight -2710 1 0
c p weight 2711 6.6666666666666675e-06 0
c p weight -2711 0.99997999999999998 0
c p weight 2712 1 0
c p weight -2712 1 0
c p weight 2713 1 0
c p weight -2713 1 0
c p weight 2714 6.6666666666666675e-06 0
c p weight -2714 0.99997999999999998 0
c p weight 2715 1 0
c p weight -2715 1 0
c p weight 2716 1 0
c p weight -2716 1 0
c p weight 2717 6.6666666666666675e-06 0
c p weight -2717 0.99997999999999998 0
c p weight 2718 1 0
c p weight -2718 1 0
c p weight 2719 1 0
c p weight -2719 1 0
c p weight 2720 6.6666666666666675e-06 0
c p weight -2720 0.99997999999999998 0
c p weight 2721 1 0
c p weight -2721 1 0
c p weight 2722 1 0
c p weight -2722 1 0
c p weight 2723 6.6666666666666675e-06 0
c p weight -2723 0.99997999999999998 0
c p weight 2724 1 0
c p weight -2724 1 0
c p weight 2725 1 0
c p weight -2725 1 0
c p weight 2726 6.6666666666666675e-06 0
c p weight -2726 0.99997999999999998 0
c p weight 2727 1 0
c p weight -2727 1 0
c p weight 2728 1 0
c p weight -2728 1 0
c p weight 2729 6.6666666666666675e-06 0
c p weight -2729 0.99997999999999998 0
c p weight 2730 1 0
c p weight -2730 1 0
c p weight 2731 1 0
c p weight -2731 1 0
c p weight 2732 6.6666666666666675e-06 0
c p weight -2732 0.99997999999999998 0
c p weight 2733 1 0
c p weight -2733 1 0
c p weight 2734 1 0
c p weight -2734 1 0
c p weight 2735 6.6666666666666675e-06 0
c p weight -2735 0.99997999999999998 0
c p weight 2736 1 0
c p weight -2736 1 0
c p weight 2737 1 0
c p weight -2737 1 0
c p weight 2738 6.6666666666666675e-06 0
c p weight -2738 0.99997999999999998 0
c p weight 2739 1 0
c p weight -2739 1 0
c p weight 2740 1 0
c p weight -2740 1 0
c p weight 2741 1.3333333333333334e-06 0
c p weight -2741 0.99997999999999998 0
c p weight 2742 1 0
c p weight -2742 1 0
c p weight 2743 1 0
c p weight -2743 1 0
c p weight 2744 1 0
c p weight -2744 1 0
c p weight 2745 1 0
c p weight -2745 1 0
c p weight 2746 6.6666666666666675e-06 0
c p weight -2746 0.99997999999999998 0
c p weight 2747 1 0
c p weight -2747 1 0
c p weight 2748 1 0
c p weight -2748 1 0
c p weight 2749 6.6666666666666675e-06 0
c p weight -2749 0.99997999999999998 0
c p weight 2750 1 0
c p weight -2750 1 0
c p weight 2751 1 0
c p weight -2751 1 0
c p weight 2752 6.6666666666666675e-06 0
c p weight -2752 0.99997999999999998 0
c p weight 2753 1 0
c p weight -2753 1 0
c p weight 2754 1 0
c p weight -2754 1 0
c p weight 2755 6.6666666666666675e-06 0
c p weight -2755 0.99997999999999998 0
c p weight 2756 1 0
c p weight -2756 1 0
c p weight 2757 1 0
c p weight -2757 1 0
c p weight 2758 6.6666666666666675e-06 0
c p weight -2758 0.99997999999999998 0
c p weight 2759 1 0
c p weight -2759 1 0
c p weight 2760 1 0
c p weight -2760 1 0
c p weight 2761 6.6666666666666675e-06 0
c p weight -2761 0.99997999999999998 0
c p weight 2762 1 0
c p weight -2762 1 0
c p weight 2763 1 0
c p weight -2763 1 0
c p weight 2764 6.6666666666666675e-06 0
c p weight -2764 0.99997999999999998 0
c p weight 2765 1 0
c p weight -2765 1 0
c p weight 2766 1 0
c p weight -2766 1 0
c p weight 2767 6.6666666666666675e-06 0
c p weight -2767 0.99997999999999998 0
c p weight 2768 1 0
c p weight -2768 1 0
c p weight 2769 1 0
c p weight -2769 1 0
c p weight 2770 6.6666666666666675e-06 0
c p weight -2770 0.99997999999999998 0
c p weight 2771 1 0
c p weight -2771 1 0
c p weight 2772 1 0
c p weight -2772 1 0
c p weight 2773 6.6666666666666675e-06 0
c p weight -2773 0.99997999999999998 0
c p weight 2774 1 0
c p weight -2774 1 0
c p weight 2775 1 0
c p weight -2775 1 0
c p weight 2776 6.6666666666666675e-06 0
c p weight -2776 0.99997999999999998 0
c p weight 2777 1 0
c p weight -2777 1 0
c p weight 2778 1 0
c p weight -2778 1 0
c p weight 2779 6.6666666666666675e-06 0
c p weight -2779 0.99997999999999998 0
c p weight 2780 1 0
c p weight -2780 1 0
c p weight 2781 1 0
c p weight -2781 1 0
c p weight 2782 6.6666666666666675e-06 0
c p weight -2782 0.99997999999999998 0
c p weight 2783 1 0
c p weight -2783 1 0
c p weight 2784 1 0
c p weight -2784 1 0
c p weight 2785 6.6666666666666675e-06 0
c p weight -2785 0.99997999999999998 0
c p weight 2786 1 0
c p weight -2786 1 0
c p weight 2787 1 0
c p weight -2787 1 0
c p weight 2788 6.6666666666666675e-06 0
c p weight -2788 0.99997999999999998 0
c p weight 2789 1 0
c p weight -2789 1 0
c p weight 2790 1 0
c p weight -2790 1 0
c p weight 2791 1.3333333333333334e-06 0
c p weight -2791 0.99997999999999998 0
c p weight 2792 1 0
c p weight -2792 1 0
c p weight 2793 1 0
c p weight -2793 1 0
c p weight 2794 1 0
c p weight -2794 1 0
c p weight 2795 1 0
c p weight -2795 1 0
c p weight 2796 6.6666666666666675e-06 0
c p weight -2796 0.99997999999999998 0
c p weight 2797 1 0
c p weight -2797 1 0
c p weight 2798 1 0
c p weight -2798 1 0
c p weight 2799 6.6666666666666675e-06 0
c p weight -2799 0.99997999999999998 0
c p weight 2800 1 0
c p weight -2800 1 0
c p weight 2801 1 0
c p weight -2801 1 0
c p weight 2802 6.6666666666666675e-06 0
c p weight -2802 0.99997999999999998 0
c p weight 2803 1 0
c p weight -2803 1 0
c p weight 2804 1 0
c p weight -2804 1 0
c p weight 2805 6.6666666666666675e-06 0
c p weight -2805 0.99997999999999998 0
c p weight 2806 1 0
c p weight -2806 1 0
c p weight 2807 1 0
c p weight -2807 1 0
c p weight 2808 6.6666666666666675e-06 0
c p weight -2808 0.99997999999999998 0
c p weight 2809 1 0
c p weight -2809 1 0
c p weight 2810 1 0
c p weight -2810 1 0
c p weight 2811 6.6666666666666675e-06 0
c p weight -2811 0.99997999999999998 0
c p weight 2812 1 0
c p weight -2812 1 0
c p weight 2813 1 0
c p weight -2813 1 0
c p weight 2814 6.6666666666666675e-06 0
c p weight -2814 0.99997999999999998 0
c p weight 2815 1 0
c p weight -2815 1 0
c p weight 2816 1 0
c p weight -2816 1 0
c p weight 2817 6.6666666666666675e-06 0
c p weight -2817 0.99997999999999998 0
c p weight 2818 1 0
c p weight -2818 1 0
c p weight 2819 1 0
c p weight -2819 1 0
c p weight 2820 6.6666666666666675e-06 0
c p weight -2820 0.99997999999999998 0
c p weight 2821 1 0
c p weight -2821 1 0
c p weight 2822 1 0
c p weight -2822 1 0
c p weight 2823 6.6666666666666675e-06 0
c p weight -2823 0.99997999999999998 0
c p weight 2824 1 0
c p weight -2824 1 0
c p weight 2825 1 0
c p weight -2825 1 0
c p weight 2826 6.6666666666666675e-06 0
c p weight -2826 0.99997999999999998 0
c p weight 2827 1 0
c p weight -2827 1 0
c p weight 2828 1 0
c p weight -2828 1 0
c p weight 2829 6.6666666666666675e-06 0
c p weight -2829 0.99997999999999998 0
c p weight 2830 1 0
c p weight -2830 1 0
c p weight 2831 1 0
c p weight -2831 1 0
c p weight 2832 6.6666666666666675e-06 0
c p weight -2832 0.99997999999999998 0
c p weight 2833 1 0
c p weight -2833 1 0
c p weight 2834 1 0
c p weight -2834 1 0
c p weight 2835 6.6666666666666675e-06 0
c p weight -2835 0.99997999999999998 0
c p weight 2836 1 0
c p weight -2836 1 0
c p weight 2837 1 0
c p weight -2837 1 0
c p weight 2838 6.6666666666666675e-06 0
c p weight -2838 0.99997999999999998 0
c p weight 2839 1 0
c p weight -2839 1 0
c p weight 2840 1 0
c p weight -2840 1 0
c p weight 2841 1.3333333333333334e-06 0
c p weight -2841 0.99997999999999998 0
c p weight 2842 1 0
c p weight -2842 1 0
c p weight 2843 1 0
c p weight -2843 1 0
c p weight 2844 1 0
c p weight -2844 1 0
c p weight 2845 1 0
c p weight -2845 1 0
c p weight 2846 6.6666666666666675e-06 0
c p weight -2846 0.99997999999999998 0
c p weight 2847 1 0
c p weight -2847 1 0
c p weight 2848 1 0
c p weight -2848 1 0
c p weight 2849 6.6666666666666675e-06 0
c p weight -2849 0.99997999999999998 0
c p weight 2850 1 0
c p weight -2850 1 0
c p weight 2851 1 0
c p weight -2851 1 0
c p weight 2852 6.6666666666666675e-06 0
c p weight -2852 0.99997999999999998 0
c p weight 2853 1 0
c p weight -2853 1 0
c p weight 2854 1 0
c p weight -2854 1 0
c p weight 2855 6.6666666666666675e-06 0
c p weight -2855 0.99997999999999998 0
c p weight 2856 1 0
c p weight -2856 1 0
c p weight 2857 1 0
c p weight -2857 1 0
c p weight 2858 6.6666666666666675e-06 0
c p weight -2858 0.99997999999999998 0
c p weight 2859 1 0
c p weight -2859 1 0
c p weight 2860 1 0
c p weight -2860 1 0
c p weight 2861 6.6666666666666675e-06 0
c p weight -2861 0.99997999999999998 0
c p weight 2862 1 0
c p weight -2862 1 0
c p weight 2863 1 0
c p weight -2863 1 0
c p weight 2864 6.6666666666666675e-06 0
c p weight -2864 0.99997999999999998 0
c p weight 2865 1 0
c p weight -2865 1 0
c p weight 2866 1 0
c p weight -2866 1 0
c p weight 2867 6.6666666666666675e-06 0
c p weight -2867 0.99997999999999998 0
c p weight 2868 1 0
c p weight -2868 1 0
c p weight 2869 1 0
c p weight -2869 1 0
c p weight 2870 6.6666666666666675e-06 0
c p weight -2870 0.99997999999999998 0
c p weight 2871 1 0
c p weight -2871 1 0
c p weight 2872 1 0
c p weight -2872 1 0
c p weight 2873 6.6666666666666675e-06 0
c p weight -2873 0.99997999999999998 0
c p weight 2874 1 0
c p weight -2874 1 0
c p weight 2875 1 0
c p weight -2875 1 0
c p weight 2876 6.6666666666666675e-06 0
c p weight -2876 0.99997999999999998 0
c p weight 2877 1 0
c p weight -2877 1 0
c p weight 2878 1 0
c p weight -2878 1 0
c p weight 2879 6.6666666666666675e-06 0
c p weight -2879 0.99997999999999998 0
c p weight 2880 1 0
c p weight -2880 1 0
c p weight 2881 1 0
c p weight -2881 1 0
c p weight 2882 6.6666666666666675e-06 0
c p weight -2882 0.99997999999999998 0
c p weight 2883 1 0
c p weight -2883 1 0
c p weight 2884 1 0
c p weight -2884 1 0
c p weight 2885 6.6666666666666675e-06 0
c p weight -2885 0.99997999999999998 0
c p weight 2886 1 0
c p weight -2886 1 0
c p weight 2887 1 0
c p weight -2887 1 0
c p weight 2888 6.6666666666666675e-06 0
c p weight -2888 0.99997999999999998 0
c p weight 2889 1 0
c p weight -2889 1 0
c p weight 2890 1 0
c p weight -2890 1 0
c p weight 2891 1.3333333333333334e-06 0
c p weight -2891 0.99997999999999998 0
c p weight 2892 1 0
c p weight -2892 1 0
c p weight 2893 1 0
c p weight -2893 1 0
c p weight 2894 1 0
c p weight -2894 1 0
c p weight 2895 1 0
c p weight -2895 1 0
c p weight 2896 6.6666666666666675e-06 0
c p weight -2896 0.99997999999999998 0
c p weight 2897 1 0
c p weight -2897 1 0
c p weight 2898 1 0
c p weight -2898 1 0
c p weight 2899 6.6666666666666675e-06 0
c p weight -2899 0.99997999999999998 0
c p weight 2900 1 0
c p weight -2900 1 0
c p weight 2901 1 0
c p weight -2901 1 0
c p weight 2902 6.6666666666666675e-06 0
c p weight -2902 0.99997999999999998 0
c p weight 2903 1 0
c p weight -2903 1 0
c p weight 2904 1 0
c p weight -2904 1 0
c p weight 2905 6.6666666666666675e-06 0
c p weight -2905 0.99997999999999998 0
c p weight 2906 1 0
c p weight -2906 1 0
c p weight 2907 1 0
c p weight -2907 1 0
c p weight 2908 6.6666666666666675e-06 0
c p weight -2908 0.99997999999999998 0
c p weight 2909 1 0
c p weight -2909 1 0
c p weight 2910 1 0
c p weight -2910 1 0
c p weight 2911 6.6666666666666675e-06 0
c p weight -2911 0.99997999999999998 0
c p weight 2912 1 0
c p weight -2912 1 0
c p weight 2913 1 0
c p weight -2913 1 0
c p weight 2914 6.6666666666666675e-06 0
c p weight -2914 0.99997999999999998 0
c p weight 2915 1 0
c p weight -2915 1 0
c p weight 2916 1 0
c p weight -2916 1 0
c p weight 2917 6.6666666666666675e-06 0
c p weight -2917 0.99997999999999998 0
c p weight 2918 1 0
c p weight -2918 1 0
c p weight 2919 1 0
c p weight -2919 1 0
c p weight 2920 6.6666666666666675e-06 0
c p weight -2920 0.99997999999999998 0
c p weight 2921 1 0
c p weight -2921 1 0
c p weight 2922 1 0
c p weight -2922 1 0
c p weight 2923 6.6666666666666675e-06 0
c p weight -2923 0.99997999999999998 0
c p weight 2924 1 0
c p weight -2924 1 0
c p weight 2925 1 0
c p weight -2925 1 0
c p weight 2926 6.6666666666666675e-06 0
c p weight -2926 0.99997999999999998 0
c p weight 2927 1 0
c p weight -2927 1 0
c p weight 2928 1 0
c p weight -2928 1 0
c p weight 2929 6.6666666666666675e-06 0
c p weight -2929 0.99997999999999998 0
c p weight 2930 1 0
c p weight -2930 1 0
c p weight 2931 1 0
c p weight -2931 1 0
c p weight 2932 6.6666666666666675e-06 0
c p weight -2932 0.99997999999999998 0
c p weight 2933 1 0
c p weight -2933 1 0
c p weight 2934 1 0
c p weight -2934 1 0
c p weight 2935 6.6666666666666675e-06 0
c p weight -2935 0.99997999999999998 0
c p weight 2936 1 0
c p weight -2936 1 0
c p weight 2937 1 0
c p weight -2937 1 0
c p weight 2938 6.6666666666666675e-06 0
c p weight -2938 0.99997999999999998 0
c p weight 2939 1 0
c p weight -2939 1 0
c p weight 2940 1 0
c p weight -2940 1 0
c p weight 2941 1.3333333333333334e-06 0
c p weight -2941 0.99997999999999998 0
c p weight 2942 1 0
c p weight -2942 1 0
c p weight 2943 1 0
c p weight -2943 1 0
c p weight 2944 1 0
c p weight -2944 1 0
c p weight 2945 1 0
c p weight -2945 1 0
c p weight 2946 6.6666666666666675e-06 0
c p weight -2946 0.99997999999999998 0
c p weight 2947 1 0
c p weight -2947 1 0
c p weight 2948 1 0
c p weight -2948 1 0
c p weight 2949 6.6666666666666675e-06 0
c p weight -2949 0.99997999999999998 0
c p weight 2950 1 0
c p weight -2950 1 0
c p weight 2951 1 0
c p weight -2951 1 0
c p weight 2952 6.6666666666666675e-06 0
c p weight -2952 0.99997999999999998 0
c p weight 2953 1 0
c p weight -2953 1 0
c p weight 2954 1 0
c p weight -2954 1 0
c p weight 2955 6.6666666666666675e-06 0
c p weight -2955 0.99997999999999998 0
c p weight 2956 1 0
c p weight -2956 1 0
c p weight 2957 1 0
c p weight -2957 1 0
c p weight 2958 6.6666666666666675e-06 0
c p weight -2958 0.99997999999999998 0
c p weight 2959 1 0
c p weight -2959 1 0
c p weight 2960 1 0
c p weight -2960 1 0
c p weight 2961 6.6666666666666675e-06 0
c p weight -2961 0.99997999999999998 0
c p weight 2962 1 0
c p weight -2962 1 0
c p weight 2963 1 0
c p weight -2963 1 0
c p weight 2964 6.6666666666666675e-06 0
c p weight -2964 0.99997999999999998 0
c p weight 2965 1 0
c p weight -2965 1 0
c p weight 2966 1 0
c p weight -2966 1 0
c p weight 2967 6.6666666666666675e-06 0
c p weight -2967 0.99997999999999998 0
c p weight 2968 1 0
c p weight -2968 1 0
c p weight 2969 1 0
c p weight -2969 1 0
c p weight 2970 6.6666666666666675e-06 0
c p weight -2970 0.99997999999999998 0
c p weight 2971 1 0
c p weight -2971 1 0
c p weight 2972 1 0
c p weight -2972 1 0
c p weight 2973 6.6666666666666675e-06 0
c p weight -2973 0.99997999999999998 0
c p weight 2974 1 0
c p weight -2974 1 0
c p weight 2975 1 0
c p weight -2975 1 0
c p weight 2976 6.6666666666666675e-06 0
c p weight -2976 0.99997999999999998 0
c p weight 2977 1 0
c p weight -2977 1 0
c p weight 2978 1 0
c p weight -2978 1 0
c p weight 2979 6.6666666666666675e-06 0
c p weight -2979 0.99997999999999998 0
c p weight 2980 1 0
c p weight -2980 1 0
c p weight 2981 1 0
c p weight -2981 1 0
c p weight 2982 6.6666666666666675e-06 0
c p weight -2982 0.99997999999999998 0
c p weight 2983 1 0
c p weight -2983 1 0
c p weight 2984 1 0
c p weight -2984 1 0
c p weight 2985 6.6666666666666675e-06 0
c p weight -2985 0.99997999999999998 0
c p weight 2986 1 0
c p weight -2986 1 0
c p weight 2987 1 0
c p weight -2987 1 0
c p weight 2988 6.6666666666666675e-06 0
c p weight -2988 0.99997999999999998 0
c p weight 2989 1 0
c p weight -2989 1 0
c p weight 2990 1 0
c p weight -2990 1 0
c p weight 2991 1.3333333333333334e-06 0
c p weight -2991 0.99997999999999998 0
c p weight 2992 1 0
c p weight -2992 1 0
c p weight 2993 1 0
c p weight -2993 1 0
c p weight 2994 1 0
c p weight -2994 1 0
c p weight 2995 1 0
c p weight -2995 1 0
c p weight 2996 6.6666666666666675e-06 0
c p weight -2996 0.99997999999999998 0
c p weight 2997 1 0
c p weight -2997 1 0
c p weight 2998 1 0
c p weight -2998 1 0
c p weight 2999 6.6666666666666675e-06 0
c p weight -2999 0.99997999999999998 0
c p weight 3000 1 0
c p weight -3000 1 0
c p weight 3001 1 0
c p weight -3001 1 0
c p weight 3002 6.6666666666666675e-06 0
c p weight -3002 0.99997999999999998 0
c p weight 3003 1 0
c p weight -3003 1 0
c p weight 3004 1 0
c p weight -3004 1 0
c p weight 3005 6.6666666666666675e-06 0
c p weight -3005 0.99997999999999998 0
c p weight 3006 1 0
c p weight -3006 1 0
c p weight 3007 1 0
c p weight -3007 1 0
c p weight 3008 6.6666666666666675e-06 0
c p weight -3008 0.99997999999999998 0
c p weight 3009 1 0
c p weight -3009 1 0
c p weight 3010 1 0
c p weight -3010 1 0
c p weight 3011 6.6666666666666675e-06 0
c p weight -3011 0.99997999999999998 0
c p weight 3012 1 0
c p weight -3012 1 0
c p weight 3013 1 0
c p weight -3013 1 0
c p weight 3014 6.6666666666666675e-06 0
c p weight -3014 0.99997999999999998 0
c p weight 3015 1 0
c p weight -3015 1 0
c p weight 3016 1 0
c p weight -3016 1 0
c p weight 3017 6.6666666666666675e-06 0
c p weight -3017 0.99997999999999998 0
c p weight 3018 1 0
c p weight -3018 1 0
c p weight 3019 1 0
c p weight -3019 1 0
c p weight 3020 6.6666666666666675e-06 0
c p weight -3020 0.99997999999999998 0
c p weight 3021 1 0
c p weight -3021 1 0
c p weight 3022 1 0
c p weight -3022 1 0
c p weight 3023 6.6666666666666675e-06 0
c p weight -3023 0.99997999999999998 0
c p weight 3024 1 0
c p weight -3024 1 0
c p weight 3025 1 0
c p weight -3025 1 0
c p weight 3026 6.6666666666666675e-06 0
c p weight -3026 0.99997999999999998 0
c p weight 3027 1 0
c p weight -3027 1 0
c p weight 3028 1 0
c p weight -3028 1 0
c p weight 3029 6.6666666666666675e-06 0
c p weight -3029 0.99997999999999998 0
c p weight 3030 1 0
c p weight -3030 1 0
c p weight 3031 1 0
c p weight -3031 1 0
c p weight 3032 6.6666666666666675e-06 0
c p weight -3032 0.99997999999999998 0
c p weight 3033 1 0
c p weight -3033 1 0
c p weight 3034 1 0
c p weight -3034 1 0
c p weight 3035 6.6666666666666675e-06 0
c p weight -3035 0.99997999999999998 0
c p weight 3036 1 0
c p weight -3036 1 0
c p weight 3037 1 0
c p weight -3037 1 0
c p weight 3038 6.6666666666666675e-06 0
c p weight -3038 0.99997999999999998 0
c p weight 3039 1 0
c p weight -3039 1 0
c p weight 3040 1 0
c p weight -3040 1 0
c p weight 3041 1.3333333333333334e-06 0
c p weight -3041 0.99997999999999998 0
c p weight 3042 1 0
c p weight -3042 1 0
c p weight 3043 1 0
c p weight -3043 1 0
c p weight 3044 1 0
c p weight -3044 1 0
c p weight 3045 1 0
c p weight -3045 1 0
c p weight 3046 6.6666666666666675e-06 0
c p weight -3046 0.99997999999999998 0
c p weight 3047 1 0
c p weight -3047 1 0
c p weight 3048 1 0
c p weight -3048 1 0
c p weight 3049 6.6666666666666675e-06 0
c p weight -3049 0.99997999999999998 0
c p weight 3050 1 0
c p weight -3050 1 0
c p weight 3051 1 0
c p weight -3051 1 0
c p weight 3052 6.6666666666666675e-06 0
c p weight -3052 0.99997999999999998 0
c p weight 3053 1 0
c p weight -3053 1 0
c p weight 3054 1 0
c p weight -3054 1 0
c p weight 3055 6.6666666666666675e-06 0
c p weight -3055 0.99997999999999998 0
c p weight 3056 1 0
c p weight -3056 1 0
c p weight 3057 1 0
c p weight -3057 1 0
c p weight 3058 6.6666666666666675e-06 0
c p weight -3058 0.99997999999999998 0
c p weight 3059 1 0
c p weight -3059 1 0
c p weight 3060 1 0
c p weight -3060 1 0
c p weight 3061 6.6666666666666675e-06 0
c p weight -3061 0.99997999999999998 0
c p weight 3062 1 0
c p weight -3062 1 0
c p weight 3063 1 0
c p weight -3063 1 0
c p weight 3064 6.6666666666666675e-06 0
c p weight -3064 0.99997999999999998 0
c p weight 3065 1 0
c p weight -3065 1 0
c p weight 3066 1 0
c p weight -3066 1 0
c p weight 3067 6.6666666666666675e-06 0
c p weight -3067 0.99997999999999998 0
c p weight 3068 1 0
c p weight -3068 1 0
c p weight 3069 1 0
c p weight -3069 1 0
c p weight 3070 6.6666666666666675e-06 0
c p weight -3070 0.99997999999999998 0
c p weight 3071 1 0
c p weight -3071 1 0
c p weight 3072 1 0
c p weight -3072 1 0
c p weight 3073 6.6666666666666675e-06 0
c p weight -3073 0.99997999999999998 0
c p weight 3074 1 0
c p weight -3074 1 0
c p weight 3075 1 0
c p weight -3075 1 0
c p weight 3076 6.6666666666666675e-06 0
c p weight -3076 0.99997999999999998 0
c p weight 3077 1 0
c p weight -3077 1 0
c p weight 3078 1 0
c p weight -3078 1 0
c p weight 3079 6.6666666666666675e-06 0
c p weight -3079 0.99997999999999998 0
c p weight 3080 1 0
c p weight -3080 1 0
c p weight 3081 1 0
c p weight -3081 1 0
c p weight 3082 6.6666666666666675e-06 0
c p weight -3082 0.99997999999999998 0
c p weight 3083 1 0
c p weight -3083 1 0
c p weight 3084 1 0
c p weight -3084 1 0
c p weight 3085 6.6666666666666675e-06 0
c p weight -3085 0.99997999999999998 0
c p weight 3086 1 0
c p weight -3086 1 0
c p weight 3087 1 0
c p weight -3087 1 0
c p weight 3088 6.6666666666666675e-06 0
c p weight -3088 0.99997999999999998 0
c p weight 3089 1 0
c p weight -3089 1 0
c p weight 3090 1 0
c p weight -3090 1 0
c p weight 3091 1.3333333333333334e-06 0
c p weight -3091 0.99997999999999998 0
c p weight 3092 1 0
c p weight -3092 1 0
c p weight 3093 1 0
c p weight -3093 1 0
c p weight 3094 1 0
c p weight -3094 1 0
c p weight 3095 1 0
c p weight -3095 1 0
c p weight 3096 6.6666666666666675e-06 0
c p weight -3096 0.99997999999999998 0
c p weight 3097 1 0
c p weight -3097 1 0
c p weight 3098 1 0
c p weight -3098 1 0
c p weight 3099 6.6666666666666675e-06 0
c p weight -3099 0.99997999999999998 0
c p weight 3100 1 0
c p weight -3100 1 0
c p weight 3101 1 0
c p weight -3101 1 0
c p weight 3102 6.6666666666666675e-06 0
c p weight -3102 0.99997999999999998 0
c p weight 3103 1 0
c p weight -3103 1 0
c p weight 3104 1 0
c p weight -3104 1 0
c p weight 3105 6.6666666666666675e-06 0
c p weight -3105 0.99997999999999998 0
c p weight 3106 1 0
c p weight -3106 1 0
c p weight 3107 1 0
c p weight -3107 1 0
c p weight 3108 6.6666666666666675e-06 0
c p weight -3108 0.99997999999999998 0
c p weight 3109 1 0
c p weight -3109 1 0
c p weight 3110 1 0
c p weight -3110 1 0
c p weight 3111 6.6666666666666675e-06 0
c p weight -3111 0.99997999999999998 0
c p weight 3112 1 0
c p weight -3112 1 0
c p weight 3113 1 0
c p weight -3113 1 0
c p weight 3114 6.6666666666666675e-06 0
c p weight -3114 0.99997999999999998 0
c p weight 3115 1 0
c p weight -3115 1 0
c p weight 3116 1 0
c p weight -3116 1 0
c p weight 3117 6.6666666666666675e-06 0
c p weight -3117 0.99997999999999998 0
c p weight 3118 1 0
c p weight -3118 1 0
c p weight 3119 1 0
c p weight -3119 1 0
c p weight 3120 6.6666666666666675e-06 0
c p weight -3120 0.99997999999999998 0
c p weight 3121 1 0
c p weight -3121 1 0
c p weight 3122 1 0
c p weight -3122 1 0
c p weight 3123 6.6666666666666675e-06 0
c p weight -3123 0.99997999999999998 0
c p weight 3124 1 0
c p weight -3124 1 0
c p weight 3125 1 0
c p weight -3125 1 0
c p weight 3126 6.6666666666666675e-06 0
c p weight -3126 0.99997999999999998 0
c p weight 3127 1 0
c p weight -3127 1 0
c p weight 3128 1 0
c p weight -3128 1 0
c p weight 3129 6.6666666666666675e-06 0
c p weight -3129 0.99997999999999998 0
c p weight 3130 1 0
c p weight -3130 1 0
c p weight 3131 1 0
c p weight -3131 1 0
c p weight 3132 6.6666666666666675e-06 0
c p weight -3132 0.99997999999999998 0
c p weight 3133 1 0
c p weight -3133 1 0
c p weight 3134 1 0
c p weight -3134 1 0
c p weight 3135 6.6666666666666675e-06 0
c p weight -3135 0.99997999999999998 0
c p weight 3136 1 0
c p weight -3136 1 0
c p weight 3137 1 0
c p weight -3137 1 0
c p weight 3138 6.6666666666666675e-06 0
c p weight -3138 0.99997999999999998 0
c p weight 3139 1 0
c p weight -3139 1 0
c p weight 3140 1 0
c p weight -3140 1 0
c p weight 3141 1.3333333333333334e-06 0
c p weight -3141 0.99997999999999998 0
c p weight 3142 1 0
c p weight -3142 1 0
c p weight 3143 1 0
c p weight -3143 1 0
c p weight 3144 1 0
c p weight -3144 1 0
c p weight 3145 1 0
c p weight -3145 1 0
c p weight 3146 6.6666666666666675e-06 0
c p weight -3146 0.99997999999999998 0
c p weight 3147 1 0
c p weight -3147 1 0
c p weight 3148 1 0
c p weight -3148 1 0
c p weight 3149 6.6666666666666675e-06 0
c p weight -3149 0.99997999999999998 0
c p weight 3150 1 0
c p weight -3150 1 0
c p weight 3151 1 0
c p weight -3151 1 0
c p weight 3152 6.6666666666666675e-06 0
c p weight -3152 0.99997999999999998 0
c p weight 3153 1 0
c p weight -3153 1 0
c p weight 3154 1 0
c p weight -3154 1 0
c p weight 3155 6.6666666666666675e-06 0
c p weight -3155 0.99997999999999998 0
c p weight 3156 1 0
c p weight -3156 1 0
c p weight 3157 1 0
c p weight -3157 1 0
c p weight 3158 6.6666666666666675e-06 0
c p weight -3158 0.99997999999999998 0
c p weight 3159 1 0
c p weight -3159 1 0
c p weight 3160 1 0
c p weight -3160 1 0
c p weight 3161 6.6666666666666675e-06 0
c p weight -3161 0.99997999999999998 0
c p weight 3162 1 0
c p weight -3162 1 0
c p weight 3163 1 0
c p weight -3163 1 0
c p weight 3164 6.6666666666666675e-06 0
c p weight -3164 0.99997999999999998 0
c p weight 3165 1 0
c p weight -3165 1 0
c p weight 3166 1 0
c p weight -3166 1 0
c p weight 3167 6.6666666666666675e-06 0
c p weight -3167 0.99997999999999998 0
c p weight 3168 1 0
c p weight -3168 1 0
c p weight 3169 1 0
c p weight -3169 1 0
c p weight 3170 6.6666666666666675e-06 0
c p weight -3170 0.99997999999999998 0
c p weight 3171 1 0
c p weight -3171 1 0
c p weight 3172 1 0
c p weight -3172 1 0
c p weight 3173 6.6666666666666675e-06 0
c p weight -3173 0.99997999999999998 0
c p weight 3174 1 0
c p weight -3174 1 0
c p weight 3175 1 0
c p weight -3175 1 0
c p weight 3176 6.6666666666666675e-06 0
c p weight -3176 0.99997999999999998 0
c p weight 3177 1 0
c p weight -3177 1 0
c p weight 3178 1 0
c p weight -3178 1 0
c p weight 3179 6.6666666666666675e-06 0
c p weight -3179 0.99997999999999998 0
c p weight 3180 1 0
c p weight -3180 1 0
c p weight 3181 1 0
c p weight -3181 1 0
c p weight 3182 6.6666666666666675e-06 0
c p weight -3182 0.99997999999999998 0
c p weight 3183 1 0
c p weight -3183 1 0
c p weight 3184 1 0
c p weight -3184 1 0
c p weight 3185 6.6666666666666675e-06 0
c p weight -3185 0.99997999999999998 0
c p weight 3186 1 0
c p weight -3186 1 0
c p weight 3187 1 0
c p weight -3187 1 0
c p weight 3188 6.6666666666666675e-06 0
c p weight -3188 0.99997999999999998 0
c p weight 3189 1 0
c p weight -3189 1 0
c p weight 3190 1 0
c p weight -3190 1 0
c p weight 3191 1.3333333333333334e-06 0
c p weight -3191 0.99997999999999998 0
c p weight 3192 1 0
c p weight -3192 1 0
c p weight 3193 1 0
c p weight -3193 1 0
c p weight 3194 1 0
c p weight -3194 1 0
c p weight 3195 1 0
c p weight -3195 1 0
c p weight 3196 6.6666666666666675e-06 0
c p weight -3196 0.99997999999999998 0
c p weight 3197 1 0
c p weight -3197 1 0
c p weight 3198 1 0
c p weight -3198 1 0
c p weight 3199 6.6666666666666675e-06 0
c p weight -3199 0.99997999999999998 0
c p weight 3200 1 0
c p weight -3200 1 0
c p weight 3201 1 0
c p weight -3201 1 0
c p weight 3202 6.6666666666666675e-06 0
c p weight -3202 0.99997999999999998 0
c p weight 3203 1 0
c p weight -3203 1 0
c p weight 3204 1 0
c p weight -3204 1 0
c p weight 3205 6.6666666666666675e-06 0
c p weight -3205 0.99997999999999998 0
c p weight 3206 1 0
c p weight -3206 1 0
c p weight 3207 1 0
c p weight -3207 1 0
c p weight 3208 6.6666666666666675e-06 0
c p weight -3208 0.99997999999999998 0
c p weight 3209 1 0
c p weight -3209 1 0
c p weight 3210 1 0
c p weight -3210 1 0
c p weight 3211 6.6666666666666675e-06 0
c p weight -3211 0.99997999999999998 0
c p weight 3212 1 0
c p weight -3212 1 0
c p weight 3213 1 0
c p weight -3213 1 0
c p weight 3214 6.6666666666666675e-06 0
c p weight -3214 0.99997999999999998 0
c p weight 3215 1 0
c p weight -3215 1 0
c p weight 3216 1 0
c p weight -3216 1 0
c p weight 3217 6.6666666666666675e-06 0
c p weight -3217 0.99997999999999998 0
c p weight 3218 1 0
c p weight -3218 1 0
c p weight 3219 1 0
c p weight -3219 1 0
c p weight 3220 6.6666666666666675e-06 0
c p weight -3220 0.99997999999999998 0
c p weight 3221 1 0
c p weight -3221 1 0
c p weight 3222 1 0
c p weight -3222 1 0
c p weight 3223 6.6666666666666675e-06 0
c p weight -3223 0.99997999999999998 0
c p weight 3224 1 0
c p weight -3224 1 0
c p weight 3225 1 0
c p weight -3225 1 0
c p weight 3226 6.6666666666666675e-06 0
c p weight -3226 0.99997999999999998 0
c p weight 3227 1 0
c p weight -3227 1 0
c p weight 3228 1 0
c p weight -3228 1 0
c p weight 3229 6.6666666666666675e-06 0
c p weight -3229 0.99997999999999998 0
c p weight 3230 1 0
c p weight -3230 1 0
c p weight 3231 1 0
c p weight -3231 1 0
c p weight 3232 6.6666666666666675e-06 0
c p weight -3232 0.99997999999999998 0
c p weight 3233 1 0
c p weight -3233 1 0
c p weight 3234 1 0
c p weight -3234 1 0
c p weight 3235 6.6666666666666675e-06 0
c p weight -3235 0.99997999999999998 0
c p weight 3236 1 0
c p weight -3236 1 0
c p weight 3237 1 0
c p weight -3237 1 0
c p weight 3238 6.6666666666666675e-06 0
c p weight -3238 0.99997999999999998 0
c p weight 3239 1 0
c p weight -3239 1 0
c p weight 3240 1 0
c p weight -3240 1 0
c p weight 3241 6.6666666666666675e-06 0
c p weight -3241 0.99997999999999998 0
c p weight 3242 1 0
c p weight -3242 1 0
c p weight 3243 1 0
c p weight -3243 1 0
c p weight 3244 6.6666666666666675e-06 0
c p weight -3244 0.99997999999999998 0
c p weight 3245 1 0
c p weight -3245 1 0
c p weight 3246 1 0
c p weight -3246 1 0
c p weight 3247 6.6666666666666675e-06 0
c p weight -3247 0.99997999999999998 0
c p weight 3248 1 0
c p weight -3248 1 0
c p weight 3249 1 0
c p weight -3249 1 0
c p weight 3250 6.6666666666666675e-06 0
c p weight -3250 0.99997999999999998 0
c p weight 3251 1 0
c p weight -3251 1 0
c p weight 3252 1 0
c p weight -3252 1 0
c p weight 3253 6.6666666666666675e-06 0
c p weight -3253 0.99997999999999998 0
c p weight 3254 1 0
c p weight -3254 1 0
c p weight 3255 1 0
c p weight -3255 1 0
c p weight 3256 6.6666666666666675e-06 0
c p weight -3256 0.99997999999999998 0
c p weight 3257 1 0
c p weight -3257 1 0
c p weight 3258 1 0
c p weight -3258 1 0
c p weight 3259 6.6666666666666675e-06 0
c p weight -3259 0.99997999999999998 0
c p weight 3260 1 0
c p weight -3260 1 0
c p weight 3261 1 0
c p weight -3261 1 0
c p weight 3262 6.6666666666666675e-06 0
c p weight -3262 0.99997999999999998 0
c p weight 3263 1 0
c p weight -3263 1 0
c p weight 3264 1 0
c p weight -3264 1 0
46 -3265 -108 0
108 -3265 -46 0
3265 -46 -108 0
3265 46 108 0
170 235 3265 -3266 0
-235 -170 3265 -3266 0
170 -235 -3265 -3266 0
235 -170 -3265 -3266 0
3266 -3265 -170 -235 0
170 235 3266 -3265 0
235 3266 -170 3265 0
170 3266 -235 3265 0
294 356 3266 -3267 0
3266 -294 -356 -3267 0
294 -3266 -356 -3267 0
356 -3266 -294 -3267 0
3267 -3266 -294 -356 0
294 356 -3266 3267 0
356 3266 -294 3267 0
294 3266 -356 3267 0
421 480 3267 -3268 0
3267 -421 -480 -3268 0
421 -3267 -480 -3268 0
480 -3267 -421 -3268 0
3268 -3267 -421 -480 0
421 480 -3267 3268 0
480 3267 -421 3268 0
421 3267 -480 3268 0
3268 -510 -3269 0
510 -3268 -3269 0
3269 -3268 -510 0
510 3268 3269 0
3269 -572 -3270 0
572 -3269 -3270 0
3270 -3269 -572 0
572 3269 3270 0
3270 -634 -3271 0
634 -3270 -3271 0
3271 -3270 -634 0
634 3270 3271 0
3271 -696 -3272 0
696 -3271 -3272 0
3272 -3271 -696 0
696 3271 3272 0
73 -135 -3273 0
135 -73 -3273 0
3273 -73 -135 0
3273 73 135 0
197 259 3273 -3274 0
3273 -197 -259 -3274 0
197 -3273 -259 -3274 0
259 -3273 -197 -3274 0
3274 -3273 -197 -259 0
197 259 -3273 3274 0
259 3273 -197 3274 0
197 3273 -259 3274 0
321 383 3274 -3275 0
3274 -321 -383 -3275 0
321 -3274 -383 -3275 0
383 -3274 -321 -3275 0
3275 -3274 -321 -383 0
321 383 -3274 3275 0
383 3274 -321 3275 0
321 3274 -383 3275 0
445 507 3275 -3276 0
3275 -445 -507 -3276 0
445 -3275 -507 -3276 0
507 -3275 -445 -3276 0
3276 -3275 -445 -507 0
445 507 -3275 3276 0
507 3275 -445 3276 0
445 3275 -507 3276 0
569 3269 3276 -3277 0
-3269 3276 -569 -3277 0
569 -3269 -3276 -3277 0
3269 -3276 -569 -3277 0
-3269 -3276 -569 3277 0
569 3269 -3276 3277 0
3269 3276 -569 3277 0
569 -3269 3276 3277 0
574 693 3277 -3278 0
3277 -574 -693 -3278 0
574 -3277 -693 -3278 0
693 -3277 -574 -3278 0
-3277 -574 -693 3278 0
574 693 -3277 3278 0
693 3277 -574 3278 0
574 3277 -693 3278 0
755 3272 3278 -3279 0
-3272 3278 -755 -3279 0
755 -3272 -3278 -3279 0
3272 -3278 -755 -3279 0
-3272 -3278 -755 3279 0
755 3272 -3278 3279 0
3272 3278 -755 3279 0
755 -3272 3278 3279 0
760 879 3279 -3280 0
3279 -760 -879 -3280 0
760 -3279 -879 -3280 0
879 -3279 -760 -3280 0
3280 -3279 -760 -879 0
760 879 -3279 3280 0
879 3279 -760 3280 0
760 3279 -879 3280 0
941 1003 3280 -3281 0
3280 -941 -1003 -3281 0
941 -3280 -1003 -3281 0
1003 -3280 -941 -3281 0
3281 -3280 -941 -1003 0
941 1003 -3280 3281 0
1003 3280 -941 3281 0
941 3280 -1003 3281 0
1065 1127 3281 -3282 0
3281 -1065 -1127 -3282 0
1065 -3281 -1127 -3282 0
1127 -3281 -1065 -3282 0
3282 -3281 -1065 -1127 0
1065 1127 -3281 3282 0
1127 3281 -1065 3282 0
1065 3281 -1127 3282 0
1189 1251 3282 -3283 0
3282 -1189 -1251 -3283 0
1189 -3282 -1251 -3283 0
1251 -3282 -1189 -3283 0
3283 -3282 -1189 -1251 0
1189 1251 -3282 3283 0
1251 3282 -1189 3283 0
1189 3282 -1251 3283 0
1313 1375 3283 -3284 0
3283 -1313 -1375 -3284 0
1313 -3283 -1375 -3284 0
1375 -3283 -1313 -3284 0
3284 -3283 -1313 -1375 0
1313 1375 -3283 3284 0
1375 3283 -1313 3284 0
1313 3283 -1375 3284 0
1437 1499 3284 -3285 0
3284 -1437 -1499 -3285 0
1437 -3284 -1499 -3285 0
1499 -3284 -1437 -3285 0
3285 -3284 -1437 -1499 0
1437 1499 -3284 3285 0
1499 3284 -1437 3285 0
1437 3284 -1499 3285 0
1561 1623 3285 -3286 0
3285 -1561 -1623 -3286 0
1561 -3285 -1623 -3286 0
1623 -3285 -1561 -3286 0
3286 -3285 -1561 -1623 0
1561 1623 -3285 3286 0
1623 3285 -1561 3286 0
1561 3285 -1623 3286 0
1685 1747 3286 -3287 0
3286 -1685 -1747 -3287 0
1685 -3286 -1747 -3287 0
1747 -3286 -1685 -3287 0
3287 -3286 -1685 -1747 0
1685 1747 -3286 3287 0
1747 3286 -1685 3287 0
1685 3286 -1747 3287 0
1809 1871 3287 -3288 0
3287 -1809 -1871 -3288 0
1809 -3287 -1871 -3288 0
1871 -3287 -1809 -3288 0
3288 -3287 -1809 -1871 0
1809 1871 -3287 3288 0
1871 3287 -1809 3288 0
1809 3287 -1871 3288 0
1933 1995 3288 -3289 0
3288 -1933 -1995 -3289 0
1933 -3288 -1995 -3289 0
1995 -3288 -1933 -3289 0
3289 -3288 -1933 -1995 0
1933 1995 -3288 3289 0
1995 3288 -1933 3289 0
1933 3288 -1995 3289 0
43 -105 -3290 0
105 -43 -3290 0
3290 -43 -105 0
3290 43 105 0
3290 -138 -3291 0
138 -3290 -3291 0
3291 -3290 -138 0
138 3290 3291 0
3291 -200 -3292 0
200 -3291 -3292 0
3292 -3291 -200 0
200 3291 3292 0
3292 -262 -3293 0
262 -3292 -3293 0
3293 -3292 -262 0
262 3292 3293 0
3293 -324 -3294 0
324 -3293 -3294 0
3294 -3293 -324 0
324 3293 3294 0
70 -132 -3295 0
132 -70 -3295 0
3295 -70 -132 0
3295 70 132 0
194 3291 3295 -3296 0
-3291 3295 -194 -3296 0
194 -3291 -3295 -3296 0
3291 -3295 -194 -3296 0
-3291 -3295 -194 3296 0
194 3291 -3295 3296 0
3291 3295 -194 3296 0
194 -3291 3295 3296 0
202 318 3296 -3297 0
3296 -202 -318 -3297 0
202 -3296 -318 -3297 0
318 -3296 -202 -3297 0
3297 -3296 -202 -318 0
202 318 -3296 3297 0
318 3296 -202 3297 0
202 3296 -318 3297 0
380 3294 3297 -3298 0
-3294 3297 -380 -3298 0
380 -3294 -3297 -3298 0
3294 -3297 -380 -3298 0
-3294 -3297 -380 3298 0
380 3294 -3297 3298 0
3294 3297 -380 3298 0
380 -3294 3297 3298 0
388 504 3298 -3299 0
3298 -388 -504 -3299 0
388 -3298 -504 -3299 0
504 -3298 -388 -3299 0
3299 -3298 -388 -504 0
388 504 -3298 3299 0
504 3298 -388 3299 0
388 3298 -504 3299 0
566 631 3299 -3300 0
3299 -566 -631 -3300 0
566 -3299 -631 -3300 0
631 -3299 -566 -3300 0
3300 -3299 -566 -631 0
566 631 -3299 3300 0
631 3299 -566 3300 0
566 3299 -631 3300 0
690 752 3300 -3301 0
3300 -690 -752 -3301 0
690 -3300 -752 -3301 0
752 -3300 -690 -3301 0
3301 -3300 -690 -752 0
690 752 -3300 3301 0
752 3300 -690 3301 0
690 3300 -752 3301 0
817 876 3301 -3302 0
3301 -817 -876 -3302 0
817 -3301 -876 -3302 0
876 -3301 -817 -3302 0
3302 -3301 -817 -876 0
817 876 -3301 3302 0
876 3301 -817 3302 0
817 3301 -876 3302 0
938 1000 3302 -3303 0
3302 -938 -1000 -3303 0
938 -3302 -1000 -3303 0
1000 -3302 -938 -3303 0
3303 -3302 -938 -1000 0
938 1000 -3302 3303 0
1000 3302 -938 3303 0
938 3302 -1000 3303 0
1062 1124 3303 -3304 0
3303 -1062 -1124 -3304 0
1062 -3303 -1124 -3304 0
1124 -3303 -1062 -3304 0
3304 -3303 -1062 -1124 0
1062 1124 -3303 3304 0
1124 3303 -1062 3304 0
1062 3303 -1124 3304 0
1186 1248 3304 -3305 0
3304 -1186 -1248 -3305 0
1186 -3304 -1248 -3305 0
1248 -3304 -1186 -3305 0
3305 -3304 -1186 -1248 0
1186 1248 -3304 3305 0
1248 3304 -1186 3305 0
1186 3304 -1248 3305 0
1310 1372 3305 -3306 0
3305 -1310 -1372 -3306 0
1310 -3305 -1372 -3306 0
1372 -3305 -1310 -3306 0
3306 -3305 -1310 -1372 0
1310 1372 -3305 3306 0
1372 3305 -1310 3306 0
1310 3305 -1372 3306 0
1434 1496 3306 -3307 0
3306 -1434 -1496 -3307 0
1434 -3306 -1496 -3307 0
1496 -3306 -1434 -3307 0
3307 -3306 -1434 -1496 0
1434 1496 -3306 3307 0
1496 3306 -1434 3307 0
1434 3306 -1496 3307 0
1558 1620 3307 -3308 0
3307 -1558 -1620 -3308 0
1558 -3307 -1620 -3308 0
1620 -3307 -1558 -3308 0
3308 -3307 -1558 -1620 0
1558 1620 -3307 3308 0
1620 3307 -1558 3308 0
1558 3307 -1620 3308 0
1682 1744 3308 -3309 0
3308 -1682 -1744 -3309 0
1682 -3308 -1744 -3309 0
1744 -3308 -1682 -3309 0
3309 -3308 -1682 -1744 0
1682 1744 -3308 3309 0
1744 3308 -1682 3309 0
1682 3308 -1744 3309 0
1806 1868 3309 -3310 0
3309 -1806 -1868 -3310 0
1806 -3309 -1868 -3310 0
1868 -3309 -1806 -3310 0
3310 -3309 -1806 -1868 0
1806 1868 -3309 3310 0
1868 3309 -1806 3310 0
1806 3309 -1868 3310 0
1930 1992 3310 -3311 0
3310 -1930 -1992 -3311 0
1930 -3310 -1992 -3311 0
1992 -3310 -1930 -3311 0
3311 -3310 -1930 -1992 0
1930 1992 -3310 3311 0
1992 3310 -1930 3311 0
1930 3310 -1992 3311 0
62 -124 -3312 0
124 -62 -3312 0
3312 -62 -124 0
3312 62 124 0
186 251 3312 -3313 0
3312 -186 -251 -3313 0
186 -3312 -251 -3313 0
251 -3312 -186 -3313 0
3313 -3312 -186 -251 0
186 251 -3312 3313 0
251 3312 -186 3313 0
186 3312 -251 3313 0
310 372 3313 -3314 0
3313 -310 -372 -3314 0
310 -3313 -372 -3314 0
372 -3313 -310 -3314 0
3314 -3313 -310 -372 0
310 372 -3313 3314 0
372 3313 -310 3314 0
310 3313 -372 3314 0
437 496 3314 -3315 0
3314 -437 -496 -3315 0
437 -3314 -496 -3315 0
496 -3314 -437 -3315 0
3315 -3314 -437 -496 0
437 496 -3314 3315 0
496 3314 -437 3315 0
437 3314 -496 3315 0
558 623 3315 -3316 0
3315 -558 -623 -3316 0
558 -3315 -623 -3316 0
623 -3315 -558 -3316 0
3316 -3315 -558 -623 0
558 623 -3315 3316 0
623 3315 -558 3316 0
558 3315 -623 3316 0
682 744 3316 -3317 0
3316 -682 -744 -3317 0
682 -3316 -744 -3317 0
744 -3316 -682 -3317 0
3317 -3316 -682 -744 0
682 744 -3316 3317 0
744 3316 -682 3317 0
682 3316 -744 3317 0
809 868 3317 -3318 0
3317 -809 -868 -3318 0
809 -3317 -868 -3318 0
868 -3317 -809 -3318 0
3318 -3317 -809 -868 0
809 868 -3317 3318 0
868 3317 -809 3318 0
809 3317 -868 3318 0
930 992 3318 -3319 0
3318 -930 -992 -3319 0
930 -3318 -992 -3319 0
992 -3318 -930 -3319 0
3319 -3318 -930 -992 0
930 992 -3318 3319 0
992 3318 -930 3319 0
930 3318 -992 3319 0
1054 1119 3319 -3320 0
3319 -1054 -1119 -3320 0
1054 -3319 -1119 -3320 0
1119 -3319 -1054 -3320 0
3320 -3319 -1054 -1119 0
1054 1119 -3319 3320 0
1119 3319 -1054 3320 0
1054 3319 -1119 3320 0
1178 1240 3320 -3321 0
3320 -1178 -1240 -3321 0
1178 -3320 -1240 -3321 0
1240 -3320 -1178 -3321 0
3321 -3320 -1178 -1240 0
1178 1240 -3320 3321 0
1240 3320 -1178 3321 0
1178 3320 -1240 3321 0
1305 1364 3321 -3322 0
3321 -1305 -1364 -3322 0
1305 -3321 -1364 -3322 0
1364 -3321 -1305 -3322 0
3322 -3321 -1305 -1364 0
1305 1364 -3321 3322 0
1364 3321 -1305 3322 0
1305 3321 -1364 3322 0
1426 1488 3322 -3323 0
3322 -1426 -1488 -3323 0
1426 -3322 -1488 -3323 0
1488 -3322 -1426 -3323 0
3323 -3322 -1426 -1488 0
1426 1488 -3322 3323 0
1488 3322 -1426 3323 0
1426 3322 -1488 3323 0
1550 1612 3323 -3324 0
3323 -1550 -1612 -3324 0
1550 -3323 -1612 -3324 0
1612 -3323 -1550 -3324 0
3324 -3323 -1550 -1612 0
1550 1612 -3323 3324 0
1612 3323 -1550 3324 0
1550 3323 -1612 3324 0
3324 -1629 -3325 0
1629 -3324 -3325 0
3325 -3324 -1629 0
1629 3324 3325 0
3325 -1691 -3326 0
1691 -3325 -3326 0
3326 -3325 -1691 0
1691 3325 3326 0
3326 -1753 -3327 0
1753 -3326 -3327 0
3327 -3326 -1753 0
1753 3326 3327 0
3327 -1815 -3328 0
1815 -3327 -3328 0
3328 -3327 -1815 0
1815 3327 3328 0
68 -130 -3329 0
130 -68 -3329 0
3329 -68 -130 0
3329 68 130 0
192 257 3329 -3330 0
3329 -192 -257 -3330 0
192 -3329 -257 -3330 0
257 -3329 -192 -3330 0
3330 -3329 -192 -257 0
192 257 -3329 3330 0
257 3329 -192 3330 0
192 3329 -257 3330 0
316 378 3330 -3331 0
3330 -316 -378 -3331 0
316 -3330 -378 -3331 0
378 -3330 -316 -3331 0
3331 -3330 -316 -378 0
316 378 -3330 3331 0
378 3330 -316 3331 0
316 3330 -378 3331 0
443 502 3331 -3332 0
3331 -443 -502 -3332 0
443 -3331 -502 -3332 0
502 -3331 -443 -3332 0
3332 -3331 -443 -502 0
443 502 -3331 3332 0
502 3331 -443 3332 0
443 3331 -502 3332 0
564 629 3332 -3333 0
3332 -564 -629 -3333 0
564 -3332 -629 -3333 0
629 -3332 -564 -3333 0
3333 -3332 -564 -629 0
564 629 -3332 3333 0
629 3332 -564 3333 0
564 3332 -629 3333 0
688 750 3333 -3334 0
3333 -688 -750 -3334 0
688 -3333 -750 -3334 0
750 -3333 -688 -3334 0
3334 -3333 -688 -750 0
688 750 -3333 3334 0
750 3333 -688 3334 0
688 3333 -750 3334 0
815 874 3334 -3335 0
3334 -815 -874 -3335 0
815 -3334 -874 -3335 0
874 -3334 -815 -3335 0
3335 -3334 -815 -874 0
815 874 -3334 3335 0
874 3334 -815 3335 0
815 3334 -874 3335 0
936 998 3335 -3336 0
3335 -936 -998 -3336 0
936 -3335 -998 -3336 0
998 -3335 -936 -3336 0
3336 -3335 -936 -998 0
936 998 -3335 3336 0
998 3335 -936 3336 0
936 3335 -998 3336 0
1060 1122 3336 -3337 0
3336 -1060 -1122 -3337 0
1060 -3336 -1122 -3337 0
1122 -3336 -1060 -3337 0
3337 -3336 -1060 -1122 0
1060 1122 -3336 3337 0
1122 3336 -1060 3337 0
1060 3336 -1122 3337 0
1184 1246 3337 -3338 0
3337 -1184 -1246 -3338 0
1184 -3337 -1246 -3338 0
1246 -3337 -1184 -3338 0
3338 -3337 -1184 -1246 0
1184 1246 -3337 3338 0
1246 3337 -1184 3338 0
1184 3337 -1246 3338 0
1308 1370 3338 -3339 0
3338 -1308 -1370 -3339 0
1308 -3338 -1370 -3339 0
1370 -3338 -1308 -3339 0
3339 -3338 -1308 -1370 0
1308 1370 -3338 3339 0
1370 3338 -1308 3339 0
1308 3338 -1370 3339 0
1432 1494 3339 -3340 0
3339 -1432 -1494 -3340 0
1432 -3339 -1494 -3340 0
1494 -3339 -1432 -3340 0
3340 -3339 -1432 -1494 0
1432 1494 -3339 3340 0
1494 3339 -1432 3340 0
1432 3339 -1494 3340 0
1556 1618 3340 -3341 0
3340 -1556 -1618 -3341 0
1556 -3340 -1618 -3341 0
1618 -3340 -1556 -3341 0
3341 -3340 -1556 -1618 0
1556 1618 -3340 3341 0
1618 3340 -1556 3341 0
1556 3340 -1618 3341 0
1680 3325 3341 -3342 0
-3325 3341 -1680 -3342 0
1680 -3325 -3341 -3342 0
3325 -3341 -1680 -3342 0
-3325 -3341 -1680 3342 0
1680 3325 -3341 3342 0
3325 3341 -1680 3342 0
1680 -3325 3341 3342 0
1689 1804 3342 -3343 0
3342 -1689 -1804 -3343 0
1689 -3342 -1804 -3343 0
1804 -3342 -1689 -3343 0
3343 -3342 -1689 -1804 0
1689 1804 -3342 3343 0
1804 3342 -1689 3343 0
1689 3342 -1804 3343 0
1866 3328 3343 -3344 0
-3328 3343 -1866 -3344 0
1866 -3328 -3343 -3344 0
3328 -3343 -1866 -3344 0
-3328 -3343 -1866 3344 0
1866 3328 -3343 3344 0
3328 3343 -1866 3344 0
1866 -3328 3343 3344 0
1875 1990 3344 -3345 0
3344 -1875 -1990 -3345 0
1875 -3344 -1990 -3345 0
1990 -3344 -1875 -3345 0
3345 -3344 -1875 -1990 0
1875 1990 -3344 3345 0
1990 3344 -1875 3345 0
1875 3344 -1990 3345 0
53 -115 -3346 0
115 -53 -3346 0
3346 -53 -115 0
3346 53 115 0
177 242 3346 -3347 0
3346 -177 -242 -3347 0
177 -3346 -242 -3347 0
242 -3346 -177 -3347 0
3347 -3346 -177 -242 0
177 242 -3346 3347 0
242 3346 -177 3347 0
177 3346 -242 3347 0
301 363 3347 -3348 0
3347 -301 -363 -3348 0
301 -3347 -363 -3348 0
363 -3347 -301 -3348 0
3348 -3347 -301 -363 0
301 363 -3347 3348 0
363 3347 -301 3348 0
301 3347 -363 3348 0
428 487 3348 -3349 0
3348 -428 -487 -3349 0
428 -3348 -487 -3349 0
487 -3348 -428 -3349 0
3349 -3348 -428 -487 0
428 487 -3348 3349 0
487 3348 -428 3349 0
428 3348 -487 3349 0
549 614 3349 -3350 0
3349 -549 -614 -3350 0
549 -3349 -614 -3350 0
614 -3349 -549 -3350 0
3350 -3349 -549 -614 0
549 614 -3349 3350 0
614 3349 -549 3350 0
549 3349 -614 3350 0
673 735 3350 -3351 0
3350 -673 -735 -3351 0
673 -3350 -735 -3351 0
735 -3350 -673 -3351 0
3351 -3350 -673 -735 0
673 735 -3350 3351 0
735 3350 -673 3351 0
673 3350 -735 3351 0
800 859 3351 -3352 0
3351 -800 -859 -3352 0
800 -3351 -859 -3352 0
859 -3351 -800 -3352 0
3352 -3351 -800 -859 0
800 859 -3351 3352 0
859 3351 -800 3352 0
800 3351 -859 3352 0
921 983 3352 -3353 0
3352 -921 -983 -3353 0
921 -3352 -983 -3353 0
983 -3352 -921 -3353 0
3353 -3352 -921 -983 0
921 983 -3352 3353 0
983 3352 -921 3353 0
921 3352 -983 3353 0
3353 -1009 -3354 0
1009 -3353 -3354 0
3354 -3353 -1009 0
1009 3353 3354 0
3354 -1071 -3355 0
1071 -3354 -3355 0
3355 -3354 -1071 0
1071 3354 3355 0
3355 -1133 -3356 0
1133 -3355 -3356 0
3356 -3355 -1133 0
1133 3355 3356 0
3356 -1195 -3357 0
1195 -3356 -3357 0
3357 -3356 -1195 0
1195 3356 3357 0
65 -127 -3358 0
127 -65 -3358 0
3358 -65 -127 0
3358 65 127 0
189 254 3358 -3359 0
3358 -189 -254 -3359 0
189 -3358 -254 -3359 0
254 -3358 -189 -3359 0
3359 -3358 -189 -254 0
189 254 -3358 3359 0
254 3358 -189 3359 0
189 3358 -254 3359 0
313 375 3359 -3360 0
3359 -313 -375 -3360 0
313 -3359 -375 -3360 0
375 -3359 -313 -3360 0
3360 -3359 -313 -375 0
313 375 -3359 3360 0
375 3359 -313 3360 0
313 3359 -375 3360 0
440 499 3360 -3361 0
3360 -440 -499 -3361 0
440 -3360 -499 -3361 0
499 -3360 -440 -3361 0
3361 -3360 -440 -499 0
440 499 -3360 3361 0
499 3360 -440 3361 0
440 3360 -499 3361 0
561 626 3361 -3362 0
3361 -561 -626 -3362 0
561 -3361 -626 -3362 0
626 -3361 -561 -3362 0
3362 -3361 -561 -626 0
561 626 -3361 3362 0
626 3361 -561 3362 0
561 3361 -626 3362 0
685 747 3362 -3363 0
3362 -685 -747 -3363 0
685 -3362 -747 -3363 0
747 -3362 -685 -3363 0
3363 -3362 -685 -747 0
685 747 -3362 3363 0
747 3362 -685 3363 0
685 3362 -747 3363 0
812 871 3363 -3364 0
3363 -812 -871 -3364 0
812 -3363 -871 -3364 0
871 -3363 -812 -3364 0
3364 -3363 -812 -871 0
812 871 -3363 3364 0
871 3363 -812 3364 0
812 3363 -871 3364 0
933 995 3364 -3365 0
3364 -933 -995 -3365 0
933 -3364 -995 -3365 0
995 -3364 -933 -3365 0
3365 -3364 -933 -995 0
933 995 -3364 3365 0
995 3364 -933 3365 0
933 3364 -995 3365 0
1057 3354 3365 -3366 0
-3354 3365 -1057 -3366 0
1057 -3354 -3365 -3366 0
3354 -3365 -1057 -3366 0
-3354 -3365 -1057 3366 0
1057 3354 -3365 3366 0
3354 3365 -1057 3366 0
1057 -3354 3365 3366 0
1069 1181 3366 -3367 0
3366 -1069 -1181 -3367 0
1069 -3366 -1181 -3367 0
1181 -3366 -1069 -3367 0
3367 -3366 -1069 -1181 0
1069 1181 -3366 3367 0
1181 3366 -1069 3367 0
1069 3366 -1181 3367 0
1243 3357 3367 -3368 0
-3357 3367 -1243 -3368 0
1243 -3357 -3367 -3368 0
3357 -3367 -1243 -3368 0
-3357 -3367 -1243 3368 0
1243 3357 -3367 3368 0
3357 3367 -1243 3368 0
1243 -3357 3367 3368 0
1255 1367 3368 -3369 0
3368 -1255 -1367 -3369 0
1255 -3368 -1367 -3369 0
1367 -3368 -1255 -3369 0
3369 -3368 -1255 -1367 0
1255 1367 -3368 3369 0
1367 3368 -1255 3369 0
1255 3368 -1367 3369 0
1429 1491 3369 -3370 0
3369 -1429 -1491 -3370 0
1429 -3369 -1491 -3370 0
1491 -3369 -1429 -3370 0
3370 -3369 -1429 -1491 0
1429 1491 -3369 3370 0
1491 3369 -1429 3370 0
1429 3369 -1491 3370 0
1553 1615 3370 -3371 0
3370 -1553 -1615 -3371 0
1553 -3370 -1615 -3371 0
1615 -3370 -1553 -3371 0
3371 -3370 -1553 -1615 0
1553 1615 -3370 3371 0
1615 3370 -1553 3371 0
1553 3370 -1615 3371 0
1677 1742 3371 -3372 0
3371 -1677 -1742 -3372 0
1677 -3371 -1742 -3372 0
1742 -3371 -1677 -3372 0
3372 -3371 -1677 -1742 0
1677 1742 -3371 3372 0
1742 3371 -1677 3372 0
1677 3371 -1742 3372 0
1801 1863 3372 -3373 0
3372 -1801 -1863 -3373 0
1801 -3372 -1863 -3373 0
1863 -3372 -1801 -3373 0
3373 -3372 -1801 -1863 0
1801 1863 -3372 3373 0
1863 3372 -1801 3373 0
1801 3372 -1863 3373 0
1928 1987 3373 -3374 0
3373 -1928 -1987 -3374 0
1928 -3373 -1987 -3374 0
1987 -3373 -1928 -3374 0
3374 -3373 -1928 -1987 0
1928 1987 -3373 3374 0
1987 3373 -1928 3374 0
1928 3373 -1987 3374 0
3289 3311 3345 3374 0
3357 -1257 -3375 0
1257 -3357 -3375 0
3375 -3357 -1257 0
1257 3357 3375 0
29 91 153 -3376 0
29 -91 -153 -3376 0
91 -29 -153 -3376 0
153 -29 -91 -3376 0
3376 -29 -91 -153 0
91 153 -29 3376 0
29 153 -91 3376 0
3376 29 91 -153 0
218 277 3376 -3377 0
3376 -218 -277 -3377 0
218 -3376 -277 -3377 0
277 -3376 -218 -3377 0
3377 -3376 -218 -277 0
218 277 -3376 3377 0
277 3376 -218 3377 0
218 3376 -277 3377 0
3377 -327 -3378 0
327 -3377 -3378 0
3378 -3377 -327 0
327 3377 3378 0
404 466 3378 -3379 0
3378 -404 -466 -3379 0
404 -3378 -466 -3379 0
466 -3378 -404 -3379 0
3379 -3378 -404 -466 0
404 466 -3378 3379 0
466 3378 -404 3379 0
404 3378 -466 3379 0
525 590 3379 -3380 0
3379 -525 -590 -3380 0
525 -3379 -590 -3380 0
590 -3379 -525 -3380 0
3380 -3379 -525 -590 0
525 590 -3379 3380 0
590 3379 -525 3380 0
525 3379 -590 3380 0
637 714 3380 -3381 0
3380 -637 -714 -3381 0
637 -3380 -714 -3381 0
714 -3380 -637 -3381 0
3381 -3380 -637 -714 0
637 714 -3380 3381 0
714 3380 -637 3381 0
637 3380 -714 3381 0
776 838 3381 -3382 0
3381 -776 -838 -3382 0
776 -3381 -838 -3382 0
838 -3381 -776 -3382 0
3382 -3381 -776 -838 0
776 838 -3381 3382 0
838 3381 -776 3382 0
776 3381 -838 3382 0
900 962 3382 -3383 0
3382 -900 -962 -3383 0
900 -3382 -962 -3383 0
962 -3382 -900 -3383 0
3383 -3382 -900 -962 0
900 962 -3382 3383 0
962 3382 -900 3383 0
900 3382 -962 3383 0
1021 1086 3383 -3384 0
3383 -1021 -1086 -3384 0
1021 -3383 -1086 -3384 0
1086 -3383 -1021 -3384 0
3384 -3383 -1021 -1086 0
1021 1086 -3383 3384 0
1086 3383 -1021 3384 0
1021 3383 -1086 3384 0
1145 1207 3384 -3385 0
3384 -1145 -1207 -3385 0
1145 -3384 -1207 -3385 0
1207 -3384 -1145 -3385 0
3385 -3384 -1145 -1207 0
1145 1207 -3384 3385 0
1207 3384 -1145 3385 0
1145 3384 -1207 3385 0
1272 3375 3385 -3386 0
-3375 3385 -1272 -3386 0
1272 -3375 -3385 -3386 0
3375 -3385 -1272 -3386 0
-3375 -3385 -1272 3386 0
1272 3375 -3385 3386 0
3375 3385 -1272 3386 0
1272 -3375 3385 3386 0
1317 1393 3386 -3387 0
3386 -1317 -1393 -3387 0
1317 -3386 -1393 -3387 0
1393 -3386 -1317 -3387 0
3387 -3386 -1317 -1393 0
1317 1393 -3386 3387 0
1393 3386 -1317 3387 0
1317 3386 -1393 3387 0
1458 1517 3387 -3388 0
3387 -1458 -1517 -3388 0
1458 -3387 -1517 -3388 0
1517 -3387 -1458 -3388 0
3388 -3387 -1458 -1517 0
1458 1517 -3387 3388 0
1517 3387 -1458 3388 0
1458 3387 -1517 3388 0
1582 3324 3388 -3389 0
-3324 3388 -1582 -3389 0
1582 -3324 -3388 -3389 0
3324 -3388 -1582 -3389 0
-3324 -3388 -1582 3389 0
1582 3324 -3388 3389 0
3324 3388 -1582 3389 0
1582 -3324 3388 3389 0
1627 1706 3389 -3390 0
3389 -1627 -1706 -3390 0
1627 -3389 -1706 -3390 0
1706 -3389 -1627 -3390 0
3390 -3389 -1627 -1706 0
1627 1706 -3389 3390 0
1706 3389 -1627 3390 0
1627 3389 -1706 3390 0
1768 1830 3390 -3391 0
3390 -1768 -1830 -3391 0
1768 -3390 -1830 -3391 0
1830 -3390 -1768 -3391 0
3391 -3390 -1768 -1830 0
1768 1830 -3390 3391 0
1830 3390 -1768 3391 0
1768 3390 -1830 3391 0
1892 1954 3391 -3392 0
3391 -1892 -1954 -3392 0
1892 -3391 -1954 -3392 0
1954 -3391 -1892 -3392 0
3392 -3391 -1892 -1954 0
1892 1954 -3391 3392 0
1954 3391 -1892 3392 0
1892 3391 -1954 3392 0
2057 2107 3392 -3393 0
3392 -2057 -2107 -3393 0
2057 -3392 -2107 -3393 0
2107 -3392 -2057 -3393 0
3393 -3392 -2057 -2107 0
2057 2107 -3392 3393 0
2107 3392 -2057 3393 0
2057 3392 -2107 3393 0
2157 2207 3393 -3394 0
3393 -2157 -2207 -3394 0
2157 -3393 -2207 -3394 0
2207 -3393 -2157 -3394 0
3394 -3393 -2157 -2207 0
2157 2207 -3393 3394 0
2207 3393 -2157 3394 0
2157 3393 -2207 3394 0
23 -85 -3395 0
85 -23 -3395 0
3395 -23 -85 0
3395 23 85 0
147 212 3395 -3396 0
3395 -147 -212 -3396 0
147 -3395 -212 -3396 0
212 -3395 -147 -3396 0
3396 -3395 -147 -212 0
147 212 -3395 3396 0
212 3395 -147 3396 0
147 3395 -212 3396 0
265 336 3396 -3397 0
3396 -265 -336 -3397 0
265 -3396 -336 -3397 0
336 -3396 -265 -3397 0
3397 -3396 -265 -336 0
265 336 -3396 3397 0
336 3396 -265 3397 0
265 3396 -336 3397 0
398 460 3397 -3398 0
3397 -398 -460 -3398 0
398 -3397 -460 -3398 0
460 -3397 -398 -3398 0
3398 -3397 -398 -460 0
398 460 -3397 3398 0
460 3397 -398 3398 0
398 3397 -460 3398 0
522 584 3398 -3399 0
3398 -522 -584 -3399 0
522 -3398 -584 -3399 0
584 -3398 -522 -3399 0
3399 -3398 -522 -584 0
522 584 -3398 3399 0
584 3398 -522 3399 0
522 3398 -584 3399 0
646 708 3399 -3400 0
3399 -646 -708 -3400 0
646 -3399 -708 -3400 0
708 -3399 -646 -3400 0
3400 -3399 -646 -708 0
646 708 -3399 3400 0
708 3399 -646 3400 0
646 3399 -708 3400 0
770 832 3400 -3401 0
3400 -770 -832 -3401 0
770 -3400 -832 -3401 0
832 -3400 -770 -3401 0
3401 -3400 -770 -832 0
770 832 -3400 3401 0
832 3400 -770 3401 0
770 3400 -832 3401 0
894 956 3401 -3402 0
3401 -894 -956 -3402 0
894 -3401 -956 -3402 0
956 -3401 -894 -3402 0
3402 -3401 -894 -956 0
894 956 -3401 3402 0
956 3401 -894 3402 0
894 3401 -956 3402 0
1015 1080 3402 -3403 0
3402 -1015 -1080 -3403 0
1015 -3402 -1080 -3403 0
1080 -3402 -1015 -3403 0
3403 -3402 -1015 -1080 0
1015 1080 -3402 3403 0
1080 3402 -1015 3403 0
1015 3402 -1080 3403 0
1139 1204 3403 -3404 0
3403 -1139 -1204 -3404 0
1139 -3403 -1204 -3404 0
1204 -3403 -1139 -3404 0
3404 -3403 -1139 -1204 0
1139 1204 -3403 3404 0
1204 3403 -1139 3404 0
1139 3403 -1204 3404 0
1266 1328 3404 -3405 0
3404 -1266 -1328 -3405 0
1266 -3404 -1328 -3405 0
1328 -3404 -1266 -3405 0
3405 -3404 -1266 -1328 0
1266 1328 -3404 3405 0
1328 3404 -1266 3405 0
1266 3404 -1328 3405 0
56 -118 -3406 0
118 -56 -3406 0
3406 -56 -118 0
3406 56 118 0
180 245 3406 -3407 0
3406 -180 -245 -3407 0
180 -3406 -245 -3407 0
245 -3406 -180 -3407 0
3407 -3406 -180 -245 0
180 245 -3406 3407 0
245 3406 -180 3407 0
180 3406 -245 3407 0
304 366 3407 -3408 0
3407 -304 -366 -3408 0
304 -3407 -366 -3408 0
366 -3407 -304 -3408 0
3408 -3407 -304 -366 0
304 366 -3407 3408 0
366 3407 -304 3408 0
304 3407 -366 3408 0
431 490 3408 -3409 0
3408 -431 -490 -3409 0
431 -3408 -490 -3409 0
490 -3408 -431 -3409 0
3409 -3408 -431 -490 0
431 490 -3408 3409 0
490 3408 -431 3409 0
431 3408 -490 3409 0
552 617 3409 -3410 0
3409 -552 -617 -3410 0
552 -3409 -617 -3410 0
617 -3409 -552 -3410 0
3410 -3409 -552 -617 0
552 617 -3409 3410 0
617 3409 -552 3410 0
552 3409 -617 3410 0
676 738 3410 -3411 0
3410 -676 -738 -3411 0
676 -3410 -738 -3411 0
738 -3410 -676 -3411 0
3411 -3410 -676 -738 0
676 738 -3410 3411 0
738 3410 -676 3411 0
676 3410 -738 3411 0
803 862 3411 -3412 0
3411 -803 -862 -3412 0
803 -3411 -862 -3412 0
862 -3411 -803 -3412 0
3412 -3411 -803 -862 0
803 862 -3411 3412 0
862 3411 -803 3412 0
803 3411 -862 3412 0
924 986 3412 -3413 0
3412 -924 -986 -3413 0
924 -3412 -986 -3413 0
986 -3412 -924 -3413 0
3413 -3412 -924 -986 0
924 986 -3412 3413 0
986 3412 -924 3413 0
924 3412 -986 3413 0
1048 1113 3413 -3414 0
3413 -1048 -1113 -3414 0
1048 -3413 -1113 -3414 0
1113 -3413 -1048 -3414 0
3414 -3413 -1048 -1113 0
1048 1113 -3413 3414 0
1113 3413 -1048 3414 0
1048 3413 -1113 3414 0
1172 1234 3414 -3415 0
3414 -1172 -1234 -3415 0
1172 -3414 -1234 -3415 0
1234 -3414 -1172 -3415 0
3415 -3414 -1172 -1234 0
1172 1234 -3414 3415 0
1234 3414 -1172 3415 0
1172 3414 -1234 3415 0
1299 1358 3415 -3416 0
3415 -1299 -1358 -3416 0
1299 -3415 -1358 -3416 0
1358 -3415 -1299 -3416 0
3416 -3415 -1299 -1358 0
1299 1358 -3415 3416 0
1358 3415 -1299 3416 0
1299 3415 -1358 3416 0
1379 3405 3416 -3417 0
-3405 3416 -1379 -3417 0
3405 -3416 -1379 -3417 0
1379 -3405 -3416 -3417 0
-3405 -3416 -1379 3417 0
1379 3405 -3416 3417 0
1379 -3405 3416 3417 0
3405 3416 -1379 3417 0
1452 1514 3417 -3418 0
3417 -1452 -1514 -3418 0
1452 -3417 -1514 -3418 0
1514 -3417 -1452 -3418 0
3418 -3417 -1452 -1514 0
1452 1514 -3417 3418 0
1514 3417 -1452 3418 0
1452 3417 -1514 3418 0
1576 1638 3418 -3419 0
3418 -1576 -1638 -3419 0
1576 -3418 -1638 -3419 0
1638 -3418 -1576 -3419 0
3419 -3418 -1576 -1638 0
1576 1638 -3418 3419 0
1638 3418 -1576 3419 0
1576 3418 -1638 3419 0
1700 1762 3419 -3420 0
3419 -1700 -1762 -3420 0
1700 -3419 -1762 -3420 0
1762 -3419 -1700 -3420 0
3420 -3419 -1700 -1762 0
1700 1762 -3419 3420 0
1762 3419 -1700 3420 0
1700 3419 -1762 3420 0
1824 1886 3420 -3421 0
3420 -1824 -1886 -3421 0
1824 -3420 -1886 -3421 0
1886 -3420 -1824 -3421 0
3421 -3420 -1824 -1886 0
1824 1886 -3420 3421 0
1886 3420 -1824 3421 0
1824 3420 -1886 3421 0
1948 2051 3421 -3422 0
3421 -1948 -2051 -3422 0
1948 -3421 -2051 -3422 0
2051 -3421 -1948 -3422 0
3422 -3421 -1948 -2051 0
1948 2051 -3421 3422 0
2051 3421 -1948 3422 0
1948 3421 -2051 3422 0
2101 2151 3422 -3423 0
3422 -2101 -2151 -3423 0
2101 -3422 -2151 -3423 0
2151 -3422 -2101 -3423 0
3423 -3422 -2101 -2151 0
2101 2151 -3422 3423 0
2151 3422 -2101 3423 0
2101 3422 -2151 3423 0
20 -79 -3424 0
79 -20 -3424 0
3424 -20 -79 0
3424 20 79 0
141 209 3424 -3425 0
3424 -141 -209 -3425 0
141 -3424 -209 -3425 0
209 -3424 -141 -3425 0
3425 -3424 -141 -209 0
141 209 -3424 3425 0
209 3424 -141 3425 0
141 3424 -209 3425 0
271 333 3425 -3426 0
3425 -271 -333 -3426 0
271 -3425 -333 -3426 0
333 -3425 -271 -3426 0
3426 -3425 -271 -333 0
271 333 -3425 3426 0
333 3425 -271 3426 0
271 3425 -333 3426 0
395 457 3426 -3427 0
3426 -395 -457 -3427 0
395 -3426 -457 -3427 0
457 -3426 -395 -3427 0
3427 -3426 -395 -457 0
395 457 -3426 3427 0
457 3426 -395 3427 0
395 3426 -457 3427 0
519 581 3427 -3428 0
3427 -519 -581 -3428 0
519 -3427 -581 -3428 0
581 -3427 -519 -3428 0
3428 -3427 -519 -581 0
519 581 -3427 3428 0
581 3427 -519 3428 0
519 3427 -581 3428 0
643 705 3428 -3429 0
3428 -643 -705 -3429 0
643 -3428 -705 -3429 0
705 -3428 -643 -3429 0
3429 -3428 -643 -705 0
643 705 -3428 3429 0
705 3428 -643 3429 0
643 3428 -705 3429 0
767 829 3429 -3430 0
3429 -767 -829 -3430 0
767 -3429 -829 -3430 0
829 -3429 -767 -3430 0
3430 -3429 -767 -829 0
767 829 -3429 3430 0
829 3429 -767 3430 0
767 3429 -829 3430 0
891 953 3430 -3431 0
3430 -891 -953 -3431 0
891 -3430 -953 -3431 0
953 -3430 -891 -3431 0
3431 -3430 -891 -953 0
891 953 -3430 3431 0
953 3430 -891 3431 0
891 3430 -953 3431 0
1012 1077 3431 -3432 0
3431 -1012 -1077 -3432 0
1012 -3431 -1077 -3432 0
1077 -3431 -1012 -3432 0
3432 -3431 -1012 -1077 0
1012 1077 -3431 3432 0
1077 3431 -1012 3432 0
1012 3431 -1077 3432 0
1131 3355 3432 -3433 0
3355 -3432 -1131 -3433 0
-3355 3432 -1131 -3433 0
1131 -3355 -3432 -3433 0
3433 -3355 -3432 -1131 0
1131 -3355 3432 3433 0
1131 3355 -3432 3433 0
3355 3432 -1131 3433 0
1201 1263 3433 -3434 0
3433 -1201 -1263 -3434 0
1201 -3433 -1263 -3434 0
1263 -3433 -1201 -3434 0
3434 -3433 -1201 -1263 0
1201 1263 -3433 3434 0
1263 3433 -1201 3434 0
1201 3433 -1263 3434 0
1325 1387 3434 -3435 0
3434 -1325 -1387 -3435 0
1325 -3434 -1387 -3435 0
1387 -3434 -1325 -3435 0
3435 -3434 -1325 -1387 0
1325 1387 -3434 3435 0
1387 3434 -1325 3435 0
1325 3434 -1387 3435 0
1449 1511 3435 -3436 0
3435 -1449 -1511 -3436 0
1449 -3435 -1511 -3436 0
1511 -3435 -1449 -3436 0
3436 -3435 -1449 -1511 0
1449 1511 -3435 3436 0
1511 3435 -1449 3436 0
1449 3435 -1511 3436 0
1573 1635 3436 -3437 0
3436 -1573 -1635 -3437 0
1573 -3436 -1635 -3437 0
1635 -3436 -1573 -3437 0
3437 -3436 -1573 -1635 0
1573 1635 -3436 3437 0
1635 3436 -1573 3437 0
1573 3436 -1635 3437 0
1697 1759 3437 -3438 0
3437 -1697 -1759 -3438 0
1697 -3437 -1759 -3438 0
1759 -3437 -1697 -3438 0
3438 -3437 -1697 -1759 0
1697 1759 -3437 3438 0
1759 3437 -1697 3438 0
1697 3437 -1759 3438 0
1821 1883 3438 -3439 0
3438 -1821 -1883 -3439 0
1821 -3438 -1883 -3439 0
1883 -3438 -1821 -3439 0
3439 -3438 -1821 -1883 0
1821 1883 -3438 3439 0
1883 3438 -1821 3439 0
1821 3438 -1883 3439 0
1945 2048 3439 -3440 0
3439 -1945 -2048 -3440 0
1945 -3439 -2048 -3440 0
2048 -3439 -1945 -3440 0
3440 -3439 -1945 -2048 0
1945 2048 -3439 3440 0
2048 3439 -1945 3440 0
1945 3439 -2048 3440 0
3440 -2095 -3441 0
2095 -3440 -3441 0
3441 -3440 -2095 0
2095 3440 3441 0
2034 2072 2122 -3442 0
2034 -2072 -2122 -3442 0
2072 -2034 -2122 -3442 0
2122 -2034 -2072 -3442 0
-2034 -2072 -2122 3442 0
2072 2122 -2034 3442 0
2034 2122 -2072 3442 0
2034 2072 -2122 3442 0
2143 3441 3442 -3443 0
-3441 3442 -2143 -3443 0
3441 -3442 -2143 -3443 0
2143 -3441 -3442 -3443 0
-3441 -3442 -2143 3443 0
2143 3441 -3442 3443 0
2143 -3441 3442 3443 0
3441 3442 -2143 3443 0
2193 3423 3443 -3444 0
-3423 3443 -2193 -3444 0
3423 -3443 -2193 -3444 0
2193 -3423 -3443 -3444 0
-3423 -3443 -2193 3444 0
2193 3423 -3443 3444 0
2193 -3423 3443 3444 0
3423 3443 -2193 3444 0
2243 3394 3444 -3445 0
-3394 3444 -2243 -3445 0
3394 -3444 -2243 -3445 0
2243 -3394 -3444 -3445 0
-3394 -3444 -2243 3445 0
2243 3394 -3444 3445 0
2243 -3394 3444 3445 0
3394 3444 -2243 3445 0
3416 -1381 -3446 0
1381 -3416 -3446 0
3446 -3416 -1381 0
1381 3416 3446 0
32 94 156 -3447 0
32 -94 -156 -3447 0
94 -32 -156 -3447 0
156 -32 -94 -3447 0
3447 -32 -94 -156 0
94 156 -32 3447 0
32 156 -94 3447 0
3447 32 94 -156 0
221 280 3447 -3448 0
3447 -221 -280 -3448 0
221 -3447 -280 -3448 0
280 -3447 -221 -3448 0
3448 -3447 -221 -280 0
221 280 -3447 3448 0
280 3447 -221 3448 0
221 3447 -280 3448 0
342 407 3448 -3449 0
3448 -342 -407 -3449 0
342 -3448 -407 -3449 0
407 -3448 -342 -3449 0
3449 -3448 -342 -407 0
342 407 -3448 3449 0
407 3448 -342 3449 0
342 3448 -407 3449 0
451 528 3449 -3450 0
3449 -451 -528 -3450 0
451 -3449 -528 -3450 0
528 -3449 -451 -3450 0
3450 -3449 -451 -528 0
451 528 -3449 3450 0
528 3449 -451 3450 0
451 3449 -528 3450 0
593 652 3450 -3451 0
3450 -593 -652 -3451 0
593 -3450 -652 -3451 0
652 -3450 -593 -3451 0
-3450 -593 -652 3451 0
593 652 -3450 3451 0
652 3450 -593 3451 0
593 3450 -652 3451 0
717 779 3451 -3452 0
3451 -717 -779 -3452 0
717 -3451 -779 -3452 0
779 -3451 -717 -3452 0
3452 -3451 -717 -779 0
717 779 -3451 3452 0
779 3451 -717 3452 0
717 3451 -779 3452 0
841 903 3452 -3453 0
3452 -841 -903 -3453 0
841 -3452 -903 -3453 0
903 -3452 -841 -3453 0
3453 -3452 -841 -903 0
841 903 -3452 3453 0
903 3452 -841 3453 0
841 3452 -903 3453 0
965 1024 3453 -3454 0
3453 -965 -1024 -3454 0
965 -3453 -1024 -3454 0
1024 -3453 -965 -3454 0
3454 -3453 -965 -1024 0
965 1024 -3453 3454 0
1024 3453 -965 3454 0
965 3453 -1024 3454 0
1089 1148 3454 -3455 0
3454 -1089 -1148 -3455 0
1089 -3454 -1148 -3455 0
1148 -3454 -1089 -3455 0
3455 -3454 -1089 -1148 0
1089 1148 -3454 3455 0
1148 3454 -1089 3455 0
1089 3454 -1148 3455 0
1210 1275 3455 -3456 0
3455 -1210 -1275 -3456 0
1210 -3455 -1275 -3456 0
1275 -3455 -1210 -3456 0
3456 -3455 -1210 -1275 0
1210 1275 -3455 3456 0
1275 3455 -1210 3456 0
1210 3455 -1275 3456 0
1334 1396 3456 -3457 0
3456 -1334 -1396 -3457 0
1334 -3456 -1396 -3457 0
1396 -3456 -1334 -3457 0
3457 -3456 -1334 -1396 0
1334 1396 -3456 3457 0
1396 3456 -1334 3457 0
1334 3456 -1396 3457 0
1441 3446 3457 -3458 0
-3446 3457 -1441 -3458 0
3446 -3457 -1441 -3458 0
1441 -3446 -3457 -3458 0
-3446 -3457 -1441 3458 0
1441 3446 -3457 3458 0
1441 -3446 3457 3458 0
3446 3457 -1441 3458 0
1520 1585 3458 -3459 0
3458 -1520 -1585 -3459 0
1520 -3458 -1585 -3459 0
1585 -3458 -1520 -3459 0
3459 -3458 -1520 -1585 0
1520 1585 -3458 3459 0
1585 3458 -1520 3459 0
1520 3458 -1585 3459 0
1644 1709 3459 -3460 0
3459 -1644 -1709 -3460 0
1644 -3459 -1709 -3460 0
1709 -3459 -1644 -3460 0
3460 -3459 -1644 -1709 0
1644 1709 -3459 3460 0
1709 3459 -1644 3460 0
1644 3459 -1709 3460 0
1751 3326 3460 -3461 0
-3326 3460 -1751 -3461 0
3326 -3460 -1751 -3461 0
1751 -3326 -3460 -3461 0
-3326 -3460 -1751 3461 0
1751 3326 -3460 3461 0
1751 -3326 3460 3461 0
3326 3460 -1751 3461 0
1833 1895 3461 -3462 0
3461 -1833 -1895 -3462 0
1833 -3461 -1895 -3462 0
1895 -3461 -1833 -3462 0
3462 -3461 -1833 -1895 0
1833 1895 -3461 3462 0
1895 3461 -1833 3462 0
1833 3461 -1895 3462 0
1957 2060 3462 -3463 0
3462 -1957 -2060 -3463 0
1957 -3462 -2060 -3463 0
2060 -3462 -1957 -3463 0
3463 -3462 -1957 -2060 0
1957 2060 -3462 3463 0
2060 3462 -1957 3463 0
1957 3462 -2060 3463 0
2110 2160 3463 -3464 0
3463 -2110 -2160 -3464 0
2110 -3463 -2160 -3464 0
2160 -3463 -2110 -3464 0
3464 -3463 -2110 -2160 0
2110 2160 -3463 3464 0
2160 3463 -2110 3464 0
2110 3463 -2160 3464 0
2210 2260 3464 -3465 0
3464 -2210 -2260 -3465 0
2210 -3464 -2260 -3465 0
2260 -3464 -2210 -3465 0
3465 -3464 -2210 -2260 0
2210 2260 -3464 3465 0
2260 3464 -2210 3465 0
2210 3464 -2260 3465 0
2293 3445 3465 -3466 0
-3445 3465 -2293 -3466 0
3445 -3465 -2293 -3466 0
2293 -3445 -3465 -3466 0
-3445 -3465 -2293 3466 0
2293 3445 -3465 3466 0
2293 -3445 3465 3466 0
3445 3465 -2293 3466 0
2375 2425 3466 -3467 0
3466 -2375 -2425 -3467 0
2375 -3466 -2425 -3467 0
2425 -3466 -2375 -3467 0
3467 -3466 -2375 -2425 0
2375 2425 -3466 3467 0
2425 3466 -2375 3467 0
2375 3466 -2425 3467 0
2475 2525 3467 -3468 0
3467 -2475 -2525 -3468 0
2475 -3467 -2525 -3468 0
2525 -3467 -2475 -3468 0
3468 -3467 -2475 -2525 0
2475 2525 -3467 3468 0
2525 3467 -2475 3468 0
2475 3467 -2525 3468 0
2575 2625 3468 -3469 0
3468 -2575 -2625 -3469 0
2575 -3468 -2625 -3469 0
2625 -3468 -2575 -3469 0
3469 -3468 -2575 -2625 0
2575 2625 -3468 3469 0
2625 3468 -2575 3469 0
2575 3468 -2625 3469 0
2675 2725 3469 -3470 0
3469 -2675 -2725 -3470 0
2675 -3469 -2725 -3470 0
2725 -3469 -2675 -3470 0
3470 -3469 -2675 -2725 0
2675 2725 -3469 3470 0
2725 3469 -2675 3470 0
2675 3469 -2725 3470 0
2775 2825 3470 -3471 0
3470 -2775 -2825 -3471 0
2775 -3470 -2825 -3471 0
2825 -3470 -2775 -3471 0
3471 -3470 -2775 -2825 0
2775 2825 -3470 3471 0
2825 3470 -2775 3471 0
2775 3470 -2825 3471 0
2875 2925 3471 -3472 0
3471 -2875 -2925 -3472 0
2875 -3471 -2925 -3472 0
2925 -3471 -2875 -3472 0
3472 -3471 -2875 -2925 0
2875 2925 -3471 3472 0
2925 3471 -2875 3472 0
2875 3471 -2925 3472 0
2975 3025 3472 -3473 0
3472 -2975 -3025 -3473 0
2975 -3472 -3025 -3473 0
3025 -3472 -2975 -3473 0
3473 -3472 -2975 -3025 0
2975 3025 -3472 3473 0
3025 3472 -2975 3473 0
2975 3472 -3025 3473 0
3075 3125 3473 -3474 0
3473 -3075 -3125 -3474 0
3075 -3473 -3125 -3474 0
3125 -3473 -3075 -3474 0
3474 -3473 -3075 -3125 0
3075 3125 -3473 3474 0
3125 3473 -3075 3474 0
3075 3473 -3125 3474 0
3175 3225 3474 -3475 0
3474 -3175 -3225 -3475 0
3175 -3474 -3225 -3475 0
3225 -3474 -3175 -3475 0
3475 -3474 -3175 -3225 0
3175 3225 -3474 3475 0
3225 3474 -3175 3475 0
3175 3474 -3225 3475 0
2077 -2127 -3476 0
2127 -2077 -3476 0
3476 -2077 -2127 0
3476 2077 2127 0
2177 2227 3476 -3477 0
3476 -2177 -2227 -3477 0
2177 -3476 -2227 -3477 0
2227 -3476 -2177 -3477 0
3477 -3476 -2177 -2227 0
2177 2227 -3476 3477 0
2227 3476 -2177 3477 0
2177 3476 -2227 3477 0
2277 2327 3477 -3478 0
3477 -2277 -2327 -3478 0
2277 -3477 -2327 -3478 0
2327 -3477 -2277 -3478 0
3478 -3477 -2277 -2327 0
2277 2327 -3477 3478 0
2327 3477 -2277 3478 0
2277 3477 -2327 3478 0
2377 2427 3478 -3479 0
3478 -2377 -2427 -3479 0
2377 -3478 -2427 -3479 0
2427 -3478 -2377 -3479 0
3479 -3478 -2377 -2427 0
2377 2427 -3478 3479 0
2427 3478 -2377 3479 0
2377 3478 -2427 3479 0
2477 2527 3479 -3480 0
3479 -2477 -2527 -3480 0
2477 -3479 -2527 -3480 0
2527 -3479 -2477 -3480 0
3480 -3479 -2477 -2527 0
2477 2527 -3479 3480 0
2527 3479 -2477 3480 0
2477 3479 -2527 3480 0
3480 -2542 -3481 0
2542 -3480 -3481 0
3481 -3480 -2542 0
2542 3480 3481 0
49 -111 -3482 0
111 -49 -3482 0
3482 -49 -111 0
3482 49 111 0
173 238 3482 -3483 0
3482 -173 -238 -3483 0
173 -3482 -238 -3483 0
238 -3482 -173 -3483 0
3483 -3482 -173 -238 0
173 238 -3482 3483 0
238 3482 -173 3483 0
173 3482 -238 3483 0
297 359 3483 -3484 0
3483 -297 -359 -3484 0
297 -3483 -359 -3484 0
359 -3483 -297 -3484 0
3484 -3483 -297 -359 0
297 359 -3483 3484 0
359 3483 -297 3484 0
297 3483 -359 3484 0
424 483 3484 -3485 0
3484 -424 -483 -3485 0
424 -3484 -483 -3485 0
483 -3484 -424 -3485 0
3485 -3484 -424 -483 0
424 483 -3484 3485 0
483 3484 -424 3485 0
424 3484 -483 3485 0
545 610 3485 -3486 0
3485 -545 -610 -3486 0
545 -3485 -610 -3486 0
610 -3485 -545 -3486 0
3486 -3485 -545 -610 0
545 610 -3485 3486 0
610 3485 -545 3486 0
545 3485 -610 3486 0
669 731 3486 -3487 0
3486 -669 -731 -3487 0
669 -3486 -731 -3487 0
731 -3486 -669 -3487 0
3487 -3486 -669 -731 0
669 731 -3486 3487 0
731 3486 -669 3487 0
669 3486 -731 3487 0
796 855 3487 -3488 0
3487 -796 -855 -3488 0
796 -3487 -855 -3488 0
855 -3487 -796 -3488 0
3488 -3487 -796 -855 0
796 855 -3487 3488 0
855 3487 -796 3488 0
796 3487 -855 3488 0
3488 -882 -3489 0
882 -3488 -3489 0
3489 -3488 -882 0
882 3488 3489 0
40 -102 -3490 0
102 -40 -3490 0
3490 -40 -102 0
3490 40 102 0
164 229 3490 -3491 0
3490 -164 -229 -3491 0
164 -3490 -229 -3491 0
229 -3490 -164 -3491 0
3491 -3490 -164 -229 0
164 229 -3490 3491 0
229 3490 -164 3491 0
164 3490 -229 3491 0
288 350 3491 -3492 0
3491 -288 -350 -3492 0
288 -3491 -350 -3492 0
350 -3491 -288 -3492 0
3492 -3491 -288 -350 0
288 350 -3491 3492 0
350 3491 -288 3492 0
288 3491 -350 3492 0
415 474 3492 -3493 0
3492 -415 -474 -3493 0
415 -3492 -474 -3493 0
474 -3492 -415 -3493 0
3493 -3492 -415 -474 0
415 474 -3492 3493 0
474 3492 -415 3493 0
415 3492 -474 3493 0
536 601 3493 -3494 0
3493 -536 -601 -3494 0
536 -3493 -601 -3494 0
601 -3493 -536 -3494 0
3494 -3493 -536 -601 0
536 601 -3493 3494 0
601 3493 -536 3494 0
536 3493 -601 3494 0
660 722 3494 -3495 0
3494 -660 -722 -3495 0
660 -3494 -722 -3495 0
722 -3494 -660 -3495 0
3495 -3494 -660 -722 0
660 722 -3494 3495 0
722 3494 -660 3495 0
660 3494 -722 3495 0
787 846 3495 -3496 0
3495 -787 -846 -3496 0
787 -3495 -846 -3496 0
846 -3495 -787 -3496 0
3496 -3495 -787 -846 0
787 846 -3495 3496 0
846 3495 -787 3496 0
787 3495 -846 3496 0
908 3489 3496 -3497 0
-3489 3496 -908 -3497 0
908 -3489 -3496 -3497 0
3489 -3496 -908 -3497 0
-3489 -3496 -908 3497 0
908 3489 -3496 3497 0
3489 3496 -908 3497 0
908 -3489 3496 3497 0
946 1032 3497 -3498 0
3497 -946 -1032 -3498 0
946 -3497 -1032 -3498 0
1032 -3497 -946 -3498 0
3498 -3497 -946 -1032 0
946 1032 -3497 3498 0
1032 3497 -946 3498 0
946 3497 -1032 3498 0
1097 1156 3498 -3499 0
3498 -1097 -1156 -3499 0
1097 -3498 -1156 -3499 0
1156 -3498 -1097 -3499 0
3499 -3498 -1097 -1156 0
1097 1156 -3498 3499 0
1156 3498 -1097 3499 0
1097 3498 -1156 3499 0
1218 1283 3499 -3500 0
3499 -1218 -1283 -3500 0
1218 -3499 -1283 -3500 0
1283 -3499 -1218 -3500 0
3500 -3499 -1218 -1283 0
1218 1283 -3499 3500 0
1283 3499 -1218 3500 0
1218 3499 -1283 3500 0
1342 1404 3500 -3501 0
3500 -1342 -1404 -3501 0
1342 -3500 -1404 -3501 0
1404 -3500 -1342 -3501 0
3501 -3500 -1342 -1404 0
1342 1404 -3500 3501 0
1404 3500 -1342 3501 0
1342 3500 -1404 3501 0
1466 1528 3501 -3502 0
3501 -1466 -1528 -3502 0
1466 -3501 -1528 -3502 0
1528 -3501 -1466 -3502 0
3502 -3501 -1466 -1528 0
1466 1528 -3501 3502 0
1528 3501 -1466 3502 0
1466 3501 -1528 3502 0
1590 1652 3502 -3503 0
3502 -1590 -1652 -3503 0
1590 -3502 -1652 -3503 0
1652 -3502 -1590 -3503 0
3503 -3502 -1590 -1652 0
1590 1652 -3502 3503 0
1652 3502 -1590 3503 0
1590 3502 -1652 3503 0
1717 1776 3503 -3504 0
3503 -1717 -1776 -3504 0
1717 -3503 -1776 -3504 0
1776 -3503 -1717 -3504 0
3504 -3503 -1717 -1776 0
1717 1776 -3503 3504 0
1776 3503 -1717 3504 0
1717 3503 -1776 3504 0
1838 1903 3504 -3505 0
3504 -1838 -1903 -3505 0
1838 -3504 -1903 -3505 0
1903 -3504 -1838 -3505 0
3505 -3504 -1838 -1903 0
1838 1903 -3504 3505 0
1903 3504 -1838 3505 0
1838 3504 -1903 3505 0
3505 -1936 -3506 0
1936 -3505 -3506 0
3506 -3505 -1936 0
1936 3505 3506 0
2068 2118 3506 -3507 0
3506 -2068 -2118 -3507 0
2068 -3506 -2118 -3507 0
2118 -3506 -2068 -3507 0
3507 -3506 -2068 -2118 0
2068 2118 -3506 3507 0
2118 3506 -2068 3507 0
2068 3506 -2118 3507 0
2168 2218 3507 -3508 0
3507 -2168 -2218 -3508 0
2168 -3507 -2218 -3508 0
2218 -3507 -2168 -3508 0
3508 -3507 -2168 -2218 0
2168 2218 -3507 3508 0
2218 3507 -2168 3508 0
2168 3507 -2218 3508 0
2268 2318 3508 -3509 0
3508 -2268 -2318 -3509 0
2268 -3508 -2318 -3509 0
2318 -3508 -2268 -3509 0
3509 -3508 -2268 -2318 0
2268 2318 -3508 3509 0
2318 3508 -2268 3509 0
2268 3508 -2318 3509 0
2368 2418 3509 -3510 0
3509 -2368 -2418 -3510 0
2368 -3509 -2418 -3510 0
2418 -3509 -2368 -3510 0
3510 -3509 -2368 -2418 0
2368 2418 -3509 3510 0
2418 3509 -2368 3510 0
2368 3509 -2418 3510 0
2468 2518 3510 -3511 0
3510 -2468 -2518 -3511 0
2468 -3510 -2518 -3511 0
2518 -3510 -2468 -3511 0
3511 -3510 -2468 -2518 0
2468 2518 -3510 3511 0
2518 3510 -2468 3511 0
2468 3510 -2518 3511 0
2568 3481 3511 -3512 0
-3481 3511 -2568 -3512 0
2568 -3481 -3511 -3512 0
3481 -3511 -2568 -3512 0
-3481 -3511 -2568 3512 0
2568 3481 -3511 3512 0
3481 3511 -2568 3512 0
2568 -3481 3511 3512 0
2594 2668 3512 -3513 0
3512 -2594 -2668 -3513 0
2594 -3512 -2668 -3513 0
2668 -3512 -2594 -3513 0
3513 -3512 -2594 -2668 0
2594 2668 -3512 3513 0
2668 3512 -2594 3513 0
2594 3512 -2668 3513 0
2718 2768 3513 -3514 0
3513 -2718 -2768 -3514 0
2718 -3513 -2768 -3514 0
2768 -3513 -2718 -3514 0
3514 -3513 -2718 -2768 0
2718 2768 -3513 3514 0
2768 3513 -2718 3514 0
2718 3513 -2768 3514 0
2818 2868 3514 -3515 0
3514 -2818 -2868 -3515 0
2818 -3514 -2868 -3515 0
2868 -3514 -2818 -3515 0
3515 -3514 -2818 -2868 0
2818 2868 -3514 3515 0
2868 3514 -2818 3515 0
2818 3514 -2868 3515 0
2918 2968 3515 -3516 0
3515 -2918 -2968 -3516 0
2918 -3515 -2968 -3516 0
2968 -3515 -2918 -3516 0
3516 -3515 -2918 -2968 0
2918 2968 -3515 3516 0
2968 3515 -2918 3516 0
2918 3515 -2968 3516 0
3018 3068 3516 -3517 0
3516 -3018 -3068 -3517 0
3018 -3516 -3068 -3517 0
3068 -3516 -3018 -3517 0
3517 -3516 -3018 -3068 0
3018 3068 -3516 3517 0
3068 3516 -3018 3517 0
3018 3516 -3068 3517 0
3118 3168 3517 -3518 0
3517 -3118 -3168 -3518 0
3118 -3517 -3168 -3518 0
3168 -3517 -3118 -3518 0
3518 -3517 -3118 -3168 0
3118 3168 -3517 3518 0
3168 3517 -3118 3518 0
3118 3517 -3168 3518 0
2071 -2121 -3519 0
2121 -2071 -3519 0
3519 -2071 -2121 0
3519 2071 2121 0
3519 -2142 -3520 0
2142 -3519 -3520 0
3520 -3519 -2142 0
2142 3519 3520 0
3520 -2192 -3521 0
2192 -3520 -3521 0
3521 -3520 -2192 0
2192 3520 3521 0
3521 -2242 -3522 0
2242 -3521 -3522 0
3522 -3521 -2242 0
2242 3521 3522 0
3294 -386 -3523 0
386 -3294 -3523 0
3523 -3294 -386 0
386 3294 3523 0
31 -93 -3524 0
93 -31 -3524 0
3524 -31 -93 0
3524 31 93 0
155 220 3524 -3525 0
3524 -155 -220 -3525 0
155 -3524 -220 -3525 0
220 -3524 -155 -3525 0
3525 -3524 -155 -220 0
155 220 -3524 3525 0
220 3524 -155 3525 0
155 3524 -220 3525 0
279 341 3525 -3526 0
3525 -279 -341 -3526 0
279 -3525 -341 -3526 0
341 -3525 -279 -3526 0
3526 -3525 -279 -341 0
279 341 -3525 3526 0
341 3525 -279 3526 0
279 3525 -341 3526 0
406 3523 3526 -3527 0
-3523 3526 -406 -3527 0
406 -3523 -3526 -3527 0
3523 -3526 -406 -3527 0
-3523 -3526 -406 3527 0
406 3523 -3526 3527 0
3523 3526 -406 3527 0
406 -3523 3526 3527 0
450 527 3527 -3528 0
3527 -450 -527 -3528 0
450 -3527 -527 -3528 0
527 -3527 -450 -3528 0
3528 -3527 -450 -527 0
450 527 -3527 3528 0
527 3527 -450 3528 0
450 3527 -527 3528 0
592 651 3528 -3529 0
3528 -592 -651 -3529 0
592 -3528 -651 -3529 0
651 -3528 -592 -3529 0
-3528 -592 -651 3529 0
592 651 -3528 3529 0
651 3528 -592 3529 0
592 3528 -651 3529 0
716 778 3529 -3530 0
3529 -716 -778 -3530 0
716 -3529 -778 -3530 0
778 -3529 -716 -3530 0
3530 -3529 -716 -778 0
716 778 -3529 3530 0
778 3529 -716 3530 0
716 3529 -778 3530 0
840 902 3530 -3531 0
3530 -840 -902 -3531 0
840 -3530 -902 -3531 0
902 -3530 -840 -3531 0
3531 -3530 -840 -902 0
840 902 -3530 3531 0
902 3530 -840 3531 0
840 3530 -902 3531 0
964 1023 3531 -3532 0
3531 -964 -1023 -3532 0
964 -3531 -1023 -3532 0
1023 -3531 -964 -3532 0
3532 -3531 -964 -1023 0
964 1023 -3531 3532 0
1023 3531 -964 3532 0
964 3531 -1023 3532 0
1088 1147 3532 -3533 0
3532 -1088 -1147 -3533 0
1088 -3532 -1147 -3533 0
1147 -3532 -1088 -3533 0
3533 -3532 -1088 -1147 0
1088 1147 -3532 3533 0
1147 3532 -1088 3533 0
1088 3532 -1147 3533 0
1209 1274 3533 -3534 0
3533 -1209 -1274 -3534 0
1209 -3533 -1274 -3534 0
1274 -3533 -1209 -3534 0
3534 -3533 -1209 -1274 0
1209 1274 -3533 3534 0
1274 3533 -1209 3534 0
1209 3533 -1274 3534 0
1333 1395 3534 -3535 0
3534 -1333 -1395 -3535 0
1333 -3534 -1395 -3535 0
1395 -3534 -1333 -3535 0
3535 -3534 -1333 -1395 0
1333 1395 -3534 3535 0
1395 3534 -1333 3535 0
1333 3534 -1395 3535 0
3535 -1440 -3536 0
1440 -3535 -3536 0
3536 -3535 -1440 0
1440 3535 3536 0
1519 1584 3536 -3537 0
3536 -1519 -1584 -3537 0
1519 -3536 -1584 -3537 0
1584 -3536 -1519 -3537 0
3537 -3536 -1519 -1584 0
1519 1584 -3536 3537 0
1584 3536 -1519 3537 0
1519 3536 -1584 3537 0
1643 1708 3537 -3538 0
3537 -1643 -1708 -3538 0
1643 -3537 -1708 -3538 0
1708 -3537 -1643 -3538 0
3538 -3537 -1643 -1708 0
1643 1708 -3537 3538 0
1708 3537 -1643 3538 0
1643 3537 -1708 3538 0
1750 1832 3538 -3539 0
3538 -1750 -1832 -3539 0
1750 -3538 -1832 -3539 0
1832 -3538 -1750 -3539 0
3539 -3538 -1750 -1832 0
1750 1832 -3538 3539 0
1832 3538 -1750 3539 0
1750 3538 -1832 3539 0
1894 1956 3539 -3540 0
3539 -1894 -1956 -3540 0
1894 -3539 -1956 -3540 0
1956 -3539 -1894 -3540 0
3540 -3539 -1894 -1956 0
1894 1956 -3539 3540 0
1956 3539 -1894 3540 0
1894 3539 -1956 3540 0
2059 2109 3540 -3541 0
3540 -2059 -2109 -3541 0
2059 -3540 -2109 -3541 0
2109 -3540 -2059 -3541 0
3541 -3540 -2059 -2109 0
2059 2109 -3540 3541 0
2109 3540 -2059 3541 0
2059 3540 -2109 3541 0
2159 2209 3541 -3542 0
3541 -2159 -2209 -3542 0
2159 -3541 -2209 -3542 0
2209 -3541 -2159 -3542 0
3542 -3541 -2159 -2209 0
2159 2209 -3541 3542 0
2209 3541 -2159 3542 0
2159 3541 -2209 3542 0
2259 3522 3542 -3543 0
-3522 3542 -2259 -3543 0
2259 -3522 -3542 -3543 0
3522 -3542 -2259 -3543 0
-3522 -3542 -2259 3543 0
2259 3522 -3542 3543 0
3522 3542 -2259 3543 0
2259 -3522 3542 3543 0
2294 2359 3543 -3544 0
3543 -2294 -2359 -3544 0
2294 -3543 -2359 -3544 0
2359 -3543 -2294 -3544 0
3544 -3543 -2294 -2359 0
2294 2359 -3543 3544 0
2359 3543 -2294 3544 0
2294 3543 -2359 3544 0
2409 2462 3544 -3545 0
3544 -2409 -2462 -3545 0
2409 -3544 -2462 -3545 0
2462 -3544 -2409 -3545 0
3545 -3544 -2409 -2462 0
2409 2462 -3544 3545 0
2462 3544 -2409 3545 0
2409 3544 -2462 3545 0
2512 2562 3545 -3546 0
3545 -2512 -2562 -3546 0
2512 -3545 -2562 -3546 0
2562 -3545 -2512 -3546 0
-3545 -2512 -2562 3546 0
2512 2562 -3545 3546 0
2562 3545 -2512 3546 0
2512 3545 -2562 3546 0
2612 2659 3546 -3547 0
3546 -2612 -2659 -3547 0
2612 -3546 -2659 -3547 0
2659 -3546 -2612 -3547 0
3547 -3546 -2612 -2659 0
2612 2659 -3546 3547 0
2659 3546 -2612 3547 0
2612 3546 -2659 3547 0
2709 2759 3547 -3548 0
3547 -2709 -2759 -3548 0
2709 -3547 -2759 -3548 0
2759 -3547 -2709 -3548 0
3548 -3547 -2709 -2759 0
2709 2759 -3547 3548 0
2759 3547 -2709 3548 0
2709 3547 -2759 3548 0
2809 2859 3548 -3549 0
3548 -2809 -2859 -3549 0
2809 -3548 -2859 -3549 0
2859 -3548 -2809 -3549 0
3549 -3548 -2809 -2859 0
2809 2859 -3548 3549 0
2859 3548 -2809 3549 0
2809 3548 -2859 3549 0
2892 2959 3549 -3550 0
3549 -2892 -2959 -3550 0
2892 -3549 -2959 -3550 0
2959 -3549 -2892 -3550 0
3550 -3549 -2892 -2959 0
2892 2959 -3549 3550 0
2959 3549 -2892 3550 0
2892 3549 -2959 3550 0
3012 3059 3550 -3551 0
3550 -3012 -3059 -3551 0
3012 -3550 -3059 -3551 0
3059 -3550 -3012 -3551 0
3551 -3550 -3012 -3059 0
3012 3059 -3550 3551 0
3059 3550 -3012 3551 0
3012 3550 -3059 3551 0
2074 -2124 -3552 0
2124 -2074 -3552 0
3552 -2074 -2124 0
3552 2074 2124 0
2174 2224 3552 -3553 0
3552 -2174 -2224 -3553 0
2174 -3552 -2224 -3553 0
2224 -3552 -2174 -3553 0
3553 -3552 -2174 -2224 0
2174 2224 -3552 3553 0
2224 3552 -2174 3553 0
2174 3552 -2224 3553 0
2274 2324 3553 -3554 0
3553 -2274 -2324 -3554 0
2274 -3553 -2324 -3554 0
2324 -3553 -2274 -3554 0
3554 -3553 -2274 -2324 0
2274 2324 -3553 3554 0
2324 3553 -2274 3554 0
2274 3553 -2324 3554 0
3554 -2342 -3555 0
2342 -3554 -3555 0
3555 -3554 -2342 0
2342 3554 3555 0
28 90 152 -3556 0
28 -90 -152 -3556 0
90 -28 -152 -3556 0
152 -28 -90 -3556 0
3556 -28 -90 -152 0
90 152 -28 3556 0
28 152 -90 3556 0
3556 28 90 -152 0
217 276 3556 -3557 0
3556 -217 -276 -3557 0
217 -3556 -276 -3557 0
276 -3556 -217 -3557 0
3557 -3556 -217 -276 0
217 276 -3556 3557 0
276 3556 -217 3557 0
217 3556 -276 3557 0
326 3293 3557 -3558 0
-3293 3557 -326 -3558 0
3293 -3557 -326 -3558 0
326 -3293 -3557 -3558 0
-3293 -3557 -326 3558 0
326 3293 -3557 3558 0
326 -3293 3557 3558 0
3293 3557 -326 3558 0
403 465 3558 -3559 0
3558 -403 -465 -3559 0
403 -3558 -465 -3559 0
465 -3558 -403 -3559 0
3559 -3558 -403 -465 0
403 465 -3558 3559 0
465 3558 -403 3559 0
403 3558 -465 3559 0
524 589 3559 -3560 0
3559 -524 -589 -3560 0
524 -3559 -589 -3560 0
589 -3559 -524 -3560 0
3560 -3559 -524 -589 0
524 589 -3559 3560 0
589 3559 -524 3560 0
524 3559 -589 3560 0
636 3270 3560 -3561 0
-3270 3560 -636 -3561 0
3270 -3560 -636 -3561 0
636 -3270 -3560 -3561 0
-3270 -3560 -636 3561 0
636 3270 -3560 3561 0
636 -3270 3560 3561 0
3270 3560 -636 3561 0
713 775 3561 -3562 0
3561 -713 -775 -3562 0
713 -3561 -775 -3562 0
775 -3561 -713 -3562 0
3562 -3561 -713 -775 0
713 775 -3561 3562 0
775 3561 -713 3562 0
713 3561 -775 3562 0
837 899 3562 -3563 0
3562 -837 -899 -3563 0
837 -3562 -899 -3563 0
899 -3562 -837 -3563 0
3563 -3562 -837 -899 0
837 899 -3562 3563 0
899 3562 -837 3563 0
837 3562 -899 3563 0
961 1020 3563 -3564 0
3563 -961 -1020 -3564 0
961 -3563 -1020 -3564 0
1020 -3563 -961 -3564 0
3564 -3563 -961 -1020 0
961 1020 -3563 3564 0
1020 3563 -961 3564 0
961 3563 -1020 3564 0
1085 1144 3564 -3565 0
3564 -1085 -1144 -3565 0
1085 -3564 -1144 -3565 0
1144 -3564 -1085 -3565 0
3565 -3564 -1085 -1144 0
1085 1144 -3564 3565 0
1144 3564 -1085 3565 0
1085 3564 -1144 3565 0
1206 1271 3565 -3566 0
3565 -1206 -1271 -3566 0
1206 -3565 -1271 -3566 0
1271 -3565 -1206 -3566 0
3566 -3565 -1206 -1271 0
1206 1271 -3565 3566 0
1271 3565 -1206 3566 0
1206 3565 -1271 3566 0
3566 -1316 -3567 0
1316 -3566 -3567 0
3567 -3566 -1316 0
1316 3566 3567 0
1392 1457 3567 -3568 0
3567 -1392 -1457 -3568 0
1392 -3567 -1457 -3568 0
1457 -3567 -1392 -3568 0
3568 -3567 -1392 -1457 0
1392 1457 -3567 3568 0
1457 3567 -1392 3568 0
1392 3567 -1457 3568 0
1516 1581 3568 -3569 0
3568 -1516 -1581 -3569 0
1516 -3568 -1581 -3569 0
1581 -3568 -1516 -3569 0
3569 -3568 -1516 -1581 0
1516 1581 -3568 3569 0
1581 3568 -1516 3569 0
1516 3568 -1581 3569 0
3569 -1626 -3570 0
1626 -3569 -3570 0
3570 -3569 -1626 0
1626 3569 3570 0
1705 1767 3570 -3571 0
3570 -1705 -1767 -3571 0
1705 -3570 -1767 -3571 0
1767 -3570 -1705 -3571 0
3571 -3570 -1705 -1767 0
1705 1767 -3570 3571 0
1767 3570 -1705 3571 0
1705 3570 -1767 3571 0
1829 1891 3571 -3572 0
3571 -1829 -1891 -3572 0
1829 -3571 -1891 -3572 0
1891 -3571 -1829 -3572 0
3572 -3571 -1829 -1891 0
1829 1891 -3571 3572 0
1891 3571 -1829 3572 0
1829 3571 -1891 3572 0
1953 2056 3572 -3573 0
3572 -1953 -2056 -3573 0
1953 -3572 -2056 -3573 0
2056 -3572 -1953 -3573 0
3573 -3572 -1953 -2056 0
1953 2056 -3572 3573 0
2056 3572 -1953 3573 0
1953 3572 -2056 3573 0
2106 2156 3573 -3574 0
3573 -2106 -2156 -3574 0
2106 -3573 -2156 -3574 0
2156 -3573 -2106 -3574 0
3574 -3573 -2106 -2156 0
2106 2156 -3573 3574 0
2156 3573 -2106 3574 0
2106 3573 -2156 3574 0
2206 3521 3574 -3575 0
-3521 3574 -2206 -3575 0
2206 -3521 -3574 -3575 0
3521 -3574 -2206 -3575 0
-3521 -3574 -2206 3575 0
2206 3521 -3574 3575 0
3521 3574 -2206 3575 0
2206 -3521 3574 3575 0
2244 2309 3575 -3576 0
3575 -2244 -2309 -3576 0
2244 -3575 -2309 -3576 0
2309 -3575 -2244 -3576 0
3576 -3575 -2244 -2309 0
2244 2309 -3575 3576 0
2309 3575 -2244 3576 0
2244 3575 -2309 3576 0
2356 3555 3576 -3577 0
-3555 3576 -2356 -3577 0
2356 -3555 -3576 -3577 0
3555 -3576 -2356 -3577 0
-3555 -3576 -2356 3577 0
2356 3555 -3576 3577 0
3555 3576 -2356 3577 0
2356 -3555 3576 3577 0
2394 2459 3577 -3578 0
3577 -2394 -2459 -3578 0
2394 -3577 -2459 -3578 0
2459 -3577 -2394 -3578 0
3578 -3577 -2394 -2459 0
2394 2459 -3577 3578 0
2459 3577 -2394 3578 0
2394 3577 -2459 3578 0
2509 2559 3578 -3579 0
3578 -2509 -2559 -3579 0
2509 -3578 -2559 -3579 0
2559 -3578 -2509 -3579 0
-3578 -2509 -2559 3579 0
2509 2559 -3578 3579 0
2559 3578 -2509 3579 0
2509 3578 -2559 3579 0
2609 2656 3579 -3580 0
3579 -2609 -2656 -3580 0
2609 -3579 -2656 -3580 0
2656 -3579 -2609 -3580 0
3580 -3579 -2609 -2656 0
2609 2656 -3579 3580 0
2656 3579 -2609 3580 0
2609 3579 -2656 3580 0
2706 2756 3580 -3581 0
3580 -2706 -2756 -3581 0
2706 -3580 -2756 -3581 0
2756 -3580 -2706 -3581 0
3581 -3580 -2706 -2756 0
2706 2756 -3580 3581 0
2756 3580 -2706 3581 0
2706 3580 -2756 3581 0
3581 -2792 -3582 0
2792 -3581 -3582 0
3582 -3581 -2792 0
2792 3581 3582 0
2856 2909 3582 -3583 0
3582 -2856 -2909 -3583 0
2856 -3582 -2909 -3583 0
2909 -3582 -2856 -3583 0
3583 -3582 -2856 -2909 0
2856 2909 -3582 3583 0
2909 3582 -2856 3583 0
2856 3582 -2909 3583 0
2956 3009 3583 -3584 0
3583 -2956 -3009 -3584 0
2956 -3583 -3009 -3584 0
3009 -3583 -2956 -3584 0
3584 -3583 -2956 -3009 0
2956 3009 -3583 3584 0
3009 3583 -2956 3584 0
2956 3583 -3009 3584 0
2040 2089 2139 -3585 0
2040 -2089 -2139 -3585 0
2089 -2040 -2139 -3585 0
2139 -2040 -2089 -3585 0
-2040 -2089 -2139 3585 0
2089 2139 -2040 3585 0
2040 2139 -2089 3585 0
2040 2089 -2139 3585 0
2189 2239 3585 -3586 0
3585 -2189 -2239 -3586 0
2189 -3585 -2239 -3586 0
2239 -3585 -2189 -3586 0
3586 -3585 -2189 -2239 0
2189 2239 -3585 3586 0
2239 3585 -2189 3586 0
2189 3585 -2239 3586 0
2289 2339 3586 -3587 0
3586 -2289 -2339 -3587 0
2289 -3586 -2339 -3587 0
2339 -3586 -2289 -3587 0
3587 -3586 -2289 -2339 0
2289 2339 -3586 3587 0
2339 3586 -2289 3587 0
2289 3586 -2339 3587 0
2389 2439 3587 -3588 0
3587 -2389 -2439 -3588 0
2389 -3587 -2439 -3588 0
2439 -3587 -2389 -3588 0
3588 -3587 -2389 -2439 0
2389 2439 -3587 3588 0
2439 3587 -2389 3588 0
2389 3587 -2439 3588 0
2489 2539 3588 -3589 0
3588 -2489 -2539 -3589 0
2489 -3588 -2539 -3589 0
2539 -3588 -2489 -3589 0
3589 -3588 -2489 -2539 0
2489 2539 -3588 3589 0
2539 3588 -2489 3589 0
2489 3588 -2539 3589 0
2589 2639 3589 -3590 0
3589 -2589 -2639 -3590 0
2589 -3589 -2639 -3590 0
2639 -3589 -2589 -3590 0
3590 -3589 -2589 -2639 0
2589 2639 -3589 3590 0
2639 3589 -2589 3590 0
2589 3589 -2639 3590 0
2689 2739 3590 -3591 0
3590 -2689 -2739 -3591 0
2689 -3590 -2739 -3591 0
2739 -3590 -2689 -3591 0
3591 -3590 -2689 -2739 0
2689 2739 -3590 3591 0
2739 3590 -2689 3591 0
2689 3590 -2739 3591 0
2789 2839 3591 -3592 0
3591 -2789 -2839 -3592 0
2789 -3591 -2839 -3592 0
2839 -3591 -2789 -3592 0
3592 -3591 -2789 -2839 0
2789 2839 -3591 3592 0
2839 3591 -2789 3592 0
2789 3591 -2839 3592 0
2889 2939 3592 -3593 0
3592 -2889 -2939 -3593 0
2889 -3592 -2939 -3593 0
2939 -3592 -2889 -3593 0
3593 -3592 -2889 -2939 0
2889 2939 -3592 3593 0
2939 3592 -2889 3593 0
2889 3592 -2939 3593 0
2989 3039 3593 -3594 0
3593 -2989 -3039 -3594 0
2989 -3593 -3039 -3594 0
3039 -3593 -2989 -3594 0
3594 -3593 -2989 -3039 0
2989 3039 -3593 3594 0
3039 3593 -2989 3594 0
2989 3593 -3039 3594 0
3044 3584 3594 -3595 0
-3584 3594 -3044 -3595 0
3584 -3594 -3044 -3595 0
3044 -3584 -3594 -3595 0
-3584 -3594 -3044 3595 0
3044 3584 -3594 3595 0
3044 -3584 3594 3595 0
3584 3594 -3044 3595 0
3094 3551 3595 -3596 0
-3551 3595 -3094 -3596 0
3551 -3595 -3094 -3596 0
3094 -3551 -3595 -3596 0
-3551 -3595 -3094 3596 0
3094 3551 -3595 3596 0
3094 -3551 3595 3596 0
3551 3595 -3094 3596 0
3555 -2392 -3597 0
2392 -3555 -3597 0
3597 -3555 -2392 0
2392 3555 3597 0
3597 -2442 -3598 0
2442 -3597 -3598 0
3598 -3597 -2442 0
2442 3597 3598 0
3272 -758 -3599 0
758 -3272 -3599 0
3599 -3272 -758 0
758 3272 3599 0
37 99 161 -3600 0
37 -99 -161 -3600 0
99 -37 -161 -3600 0
161 -37 -99 -3600 0
3600 -37 -99 -161 0
99 161 -37 3600 0
37 161 -99 3600 0
3600 37 99 -161 0
226 285 3600 -3601 0
3600 -226 -285 -3601 0
226 -3600 -285 -3601 0
285 -3600 -226 -3601 0
3601 -3600 -226 -285 0
226 285 -3600 3601 0
285 3600 -226 3601 0
226 3600 -285 3601 0
347 412 3601 -3602 0
3601 -347 -412 -3602 0
347 -3601 -412 -3602 0
412 -3601 -347 -3602 0
3602 -3601 -347 -412 0
347 412 -3601 3602 0
412 3601 -347 3602 0
347 3601 -412 3602 0
471 533 3602 -3603 0
3602 -471 -533 -3603 0
471 -3602 -533 -3603 0
533 -3602 -471 -3603 0
3603 -3602 -471 -533 0
471 533 -3602 3603 0
533 3602 -471 3603 0
471 3602 -533 3603 0
598 657 3603 -3604 0
3603 -598 -657 -3604 0
598 -3603 -657 -3604 0
657 -3603 -598 -3604 0
-3603 -598 -657 3604 0
598 657 -3603 3604 0
657 3603 -598 3604 0
598 3603 -657 3604 0
719 784 3604 -3605 0
3604 -719 -784 -3605 0
719 -3604 -784 -3605 0
784 -3604 -719 -3605 0
3605 -3604 -719 -784 0
719 784 -3604 3605 0
784 3604 -719 3605 0
719 3604 -784 3605 0
822 3599 3605 -3606 0
-3599 3605 -822 -3606 0
3599 -3605 -822 -3606 0
822 -3599 -3605 -3606 0
-3599 -3605 -822 3606 0
822 3599 -3605 3606 0
822 -3599 3605 3606 0
3599 3605 -822 3606 0
884 3488 3606 -3607 0
-3488 3606 -884 -3607 0
3488 -3606 -884 -3607 0
884 -3488 -3606 -3607 0
-3488 -3606 -884 3607 0
884 3488 -3606 3607 0
884 -3488 3606 3607 0
3488 3606 -884 3607 0
970 1029 3607 -3608 0
3607 -970 -1029 -3608 0
970 -3607 -1029 -3608 0
1029 -3607 -970 -3608 0
3608 -3607 -970 -1029 0
970 1029 -3607 3608 0
1029 3607 -970 3608 0
970 3607 -1029 3608 0
1094 1153 3608 -3609 0
3608 -1094 -1153 -3609 0
1094 -3608 -1153 -3609 0
1153 -3608 -1094 -3609 0
3609 -3608 -1094 -1153 0
1094 1153 -3608 3609 0
1153 3608 -1094 3609 0
1094 3608 -1153 3609 0
1215 1280 3609 -3610 0
3609 -1215 -1280 -3610 0
1215 -3609 -1280 -3610 0
1280 -3609 -1215 -3610 0
3610 -3609 -1215 -1280 0
1215 1280 -3609 3610 0
1280 3609 -1215 3610 0
1215 3609 -1280 3610 0
1339 1401 3610 -3611 0
3610 -1339 -1401 -3611 0
1339 -3610 -1401 -3611 0
1401 -3610 -1339 -3611 0
3611 -3610 -1339 -1401 0
1339 1401 -3610 3611 0
1401 3610 -1339 3611 0
1339 3610 -1401 3611 0
1463 1525 3611 -3612 0
3611 -1463 -1525 -3612 0
1463 -3611 -1525 -3612 0
1525 -3611 -1463 -3612 0
3612 -3611 -1463 -1525 0
1463 1525 -3611 3612 0
1525 3611 -1463 3612 0
1463 3611 -1525 3612 0
1587 1649 3612 -3613 0
3612 -1587 -1649 -3613 0
1587 -3612 -1649 -3613 0
1649 -3612 -1587 -3613 0
3613 -3612 -1587 -1649 0
1587 1649 -3612 3613 0
1649 3612 -1587 3613 0
1587 3612 -1649 3613 0
1714 1773 3613 -3614 0
3613 -1714 -1773 -3614 0
1714 -3613 -1773 -3614 0
1773 -3613 -1714 -3614 0
3614 -3613 -1714 -1773 0
1714 1773 -3613 3614 0
1773 3613 -1714 3614 0
1714 3613 -1773 3614 0
3614 -1812 -3615 0
1812 -3614 -3615 0
3615 -3614 -1812 0
1812 3614 3615 0
1900 1962 3615 -3616 0
3615 -1900 -1962 -3616 0
1900 -3615 -1962 -3616 0
1962 -3615 -1900 -3616 0
3616 -3615 -1900 -1962 0
1900 1962 -3615 3616 0
1962 3615 -1900 3616 0
1900 3615 -1962 3616 0
2065 2115 3616 -3617 0
3616 -2065 -2115 -3617 0
2065 -3616 -2115 -3617 0
2115 -3616 -2065 -3617 0
3617 -3616 -2065 -2115 0
2065 2115 -3616 3617 0
2115 3616 -2065 3617 0
2065 3616 -2115 3617 0
2165 2215 3617 -3618 0
3617 -2165 -2215 -3618 0
2165 -3617 -2215 -3618 0
2215 -3617 -2165 -3618 0
3618 -3617 -2165 -2215 0
2165 2215 -3617 3618 0
2215 3617 -2165 3618 0
2165 3617 -2215 3618 0
2265 2315 3618 -3619 0
3618 -2265 -2315 -3619 0
2265 -3618 -2315 -3619 0
2315 -3618 -2265 -3619 0
3619 -3618 -2265 -2315 0
2265 2315 -3618 3619 0
2315 3618 -2265 3619 0
2265 3618 -2315 3619 0
2365 2415 3619 -3620 0
3619 -2365 -2415 -3620 0
2365 -3619 -2415 -3620 0
2415 -3619 -2365 -3620 0
3620 -3619 -2365 -2415 0
2365 2415 -3619 3620 0
2415 3619 -2365 3620 0
2365 3619 -2415 3620 0
2465 3598 3620 -3621 0
-3598 3620 -2465 -3621 0
2465 -3598 -3620 -3621 0
3598 -3620 -2465 -3621 0
-3598 -3620 -2465 3621 0
2465 3598 -3620 3621 0
3598 3620 -2465 3621 0
2465 -3598 3620 3621 0
2494 3480 3621 -3622 0
3480 -3621 -2494 -3622 0
-3480 3621 -2494 -3622 0
2494 -3480 -3621 -3622 0
3622 -3480 -3621 -2494 0
2494 -3480 3621 3622 0
2494 3480 -3621 3622 0
3480 3621 -2494 3622 0
2544 2618 3622 -3623 0
3622 -2544 -2618 -3623 0
2544 -3622 -2618 -3623 0
2618 -3622 -2544 -3623 0
3623 -3622 -2544 -2618 0
2544 2618 -3622 3623 0
2618 3622 -2544 3623 0
2544 3622 -2618 3623 0
2665 2715 3623 -3624 0
3623 -2665 -2715 -3624 0
2665 -3623 -2715 -3624 0
2715 -3623 -2665 -3624 0
3624 -3623 -2665 -2715 0
2665 2715 -3623 3624 0
2715 3623 -2665 3624 0
2665 3623 -2715 3624 0
2765 2815 3624 -3625 0
3624 -2765 -2815 -3625 0
2765 -3624 -2815 -3625 0
2815 -3624 -2765 -3625 0
3625 -3624 -2765 -2815 0
2765 2815 -3624 3625 0
2815 3624 -2765 3625 0
2765 3624 -2815 3625 0
2865 2915 3625 -3626 0
3625 -2865 -2915 -3626 0
2865 -3625 -2915 -3626 0
2915 -3625 -2865 -3626 0
3626 -3625 -2865 -2915 0
2865 2915 -3625 3626 0
2915 3625 -2865 3626 0
2865 3625 -2915 3626 0
2965 3015 3626 -3627 0
3626 -2965 -3015 -3627 0
2965 -3626 -3015 -3627 0
3015 -3626 -2965 -3627 0
3627 -3626 -2965 -3015 0
2965 3015 -3626 3627 0
3015 3626 -2965 3627 0
2965 3626 -3015 3627 0
3065 3115 3627 -3628 0
3627 -3065 -3115 -3628 0
3065 -3627 -3115 -3628 0
3115 -3627 -3065 -3628 0
3628 -3627 -3065 -3115 0
3065 3115 -3627 3628 0
3115 3627 -3065 3628 0
3065 3627 -3115 3628 0
3144 3596 3628 -3629 0
-3596 3628 -3144 -3629 0
3596 -3628 -3144 -3629 0
3144 -3596 -3628 -3629 0
-3596 -3628 -3144 3629 0
3144 3596 -3628 3629 0
3144 -3596 3628 3629 0
3596 3628 -3144 3629 0
3194 3518 3629 -3630 0
-3518 3629 -3194 -3630 0
3518 -3629 -3194 -3630 0
3194 -3518 -3629 -3630 0
-3518 -3629 -3194 3630 0
3194 3518 -3629 3630 0
3194 -3518 3629 3630 0
3518 3629 -3194 3630 0
25 -87 -3631 0
87 -25 -3631 0
3631 -25 -87 0
3631 25 87 0
149 214 3631 -3632 0
3631 -149 -214 -3632 0
149 -3631 -214 -3632 0
214 -3631 -149 -3632 0
3632 -3631 -149 -214 0
149 214 -3631 3632 0
214 3631 -149 3632 0
149 3631 -214 3632 0
273 338 3632 -3633 0
3632 -273 -338 -3633 0
273 -3632 -338 -3633 0
338 -3632 -273 -3633 0
3633 -3632 -273 -338 0
273 338 -3632 3633 0
338 3632 -273 3633 0
273 3632 -338 3633 0
400 462 3633 -3634 0
3633 -400 -462 -3634 0
400 -3633 -462 -3634 0
462 -3633 -400 -3634 0
3634 -3633 -400 -462 0
400 462 -3633 3634 0
462 3633 -400 3634 0
400 3633 -462 3634 0
512 3268 3634 -3635 0
3268 -3634 -512 -3635 0
-3268 3634 -512 -3635 0
512 -3268 -3634 -3635 0
3635 -3268 -3634 -512 0
512 -3268 3634 3635 0
512 3268 -3634 3635 0
3268 3634 -512 3635 0
586 648 3635 -3636 0
3635 -586 -648 -3636 0
586 -3635 -648 -3636 0
648 -3635 -586 -3636 0
-3635 -586 -648 3636 0
586 648 -3635 3636 0
648 3635 -586 3636 0
586 3635 -648 3636 0
710 772 3636 -3637 0
3636 -710 -772 -3637 0
710 -3636 -772 -3637 0
772 -3636 -710 -3637 0
3637 -3636 -710 -772 0
710 772 -3636 3637 0
772 3636 -710 3637 0
710 3636 -772 3637 0
834 896 3637 -3638 0
3637 -834 -896 -3638 0
834 -3637 -896 -3638 0
896 -3637 -834 -3638 0
3638 -3637 -834 -896 0
834 896 -3637 3638 0
896 3637 -834 3638 0
834 3637 -896 3638 0
958 1017 3638 -3639 0
3638 -958 -1017 -3639 0
958 -3638 -1017 -3639 0
1017 -3638 -958 -3639 0
3639 -3638 -958 -1017 0
958 1017 -3638 3639 0
1017 3638 -958 3639 0
958 3638 -1017 3639 0
1082 1141 3639 -3640 0
3639 -1082 -1141 -3640 0
1082 -3639 -1141 -3640 0
1141 -3639 -1082 -3640 0
3640 -3639 -1082 -1141 0
1082 1141 -3639 3640 0
1141 3639 -1082 3640 0
1082 3639 -1141 3640 0
3640 -1192 -3641 0
1192 -3640 -3641 0
3641 -3640 -1192 0
1192 3640 3641 0
1268 1330 3641 -3642 0
3641 -1268 -1330 -3642 0
1268 -3641 -1330 -3642 0
1330 -3641 -1268 -3642 0
3642 -3641 -1268 -1330 0
1268 1330 -3641 3642 0
1330 3641 -1268 3642 0
1268 3641 -1330 3642 0
1389 1454 3642 -3643 0
3642 -1389 -1454 -3643 0
1389 -3642 -1454 -3643 0
1454 -3642 -1389 -3643 0
3643 -3642 -1389 -1454 0
1389 1454 -3642 3643 0
1454 3642 -1389 3643 0
1389 3642 -1454 3643 0
3643 -1502 -3644 0
1502 -3643 -3644 0
3644 -3643 -1502 0
1502 3643 3644 0
1578 1640 3644 -3645 0
3644 -1578 -1640 -3645 0
1578 -3644 -1640 -3645 0
1640 -3644 -1578 -3645 0
3645 -3644 -1578 -1640 0
1578 1640 -3644 3645 0
1640 3644 -1578 3645 0
1578 3644 -1640 3645 0
1702 1764 3645 -3646 0
3645 -1702 -1764 -3646 0
1702 -3645 -1764 -3646 0
1764 -3645 -1702 -3646 0
3646 -3645 -1702 -1764 0
1702 1764 -3645 3646 0
1764 3645 -1702 3646 0
1702 3645 -1764 3646 0
1826 1888 3646 -3647 0
3646 -1826 -1888 -3647 0
1826 -3646 -1888 -3647 0
1888 -3646 -1826 -3647 0
3647 -3646 -1826 -1888 0
1826 1888 -3646 3647 0
1888 3646 -1826 3647 0
1826 3646 -1888 3647 0
1950 2053 3647 -3648 0
3647 -1950 -2053 -3648 0
1950 -3647 -2053 -3648 0
2053 -3647 -1950 -3648 0
3648 -3647 -1950 -2053 0
1950 2053 -3647 3648 0
2053 3647 -1950 3648 0
1950 3647 -2053 3648 0
2103 2153 3648 -3649 0
3648 -2103 -2153 -3649 0
2103 -3648 -2153 -3649 0
2153 -3648 -2103 -3649 0
3649 -3648 -2103 -2153 0
2103 2153 -3648 3649 0
2153 3648 -2103 3649 0
2103 3648 -2153 3649 0
2203 2256 3649 -3650 0
3649 -2203 -2256 -3650 0
2203 -3649 -2256 -3650 0
2256 -3649 -2203 -3650 0
3650 -3649 -2203 -2256 0
2203 2256 -3649 3650 0
2256 3649 -2203 3650 0
2203 3649 -2256 3650 0
2306 3554 3650 -3651 0
3554 -3650 -2306 -3651 0
-3554 3650 -2306 -3651 0
2306 -3554 -3650 -3651 0
3651 -3554 -3650 -2306 0
2306 -3554 3650 3651 0
2306 3554 -3650 3651 0
3554 3650 -2306 3651 0
2344 2406 3651 -3652 0
3651 -2344 -2406 -3652 0
2344 -3651 -2406 -3652 0
2406 -3651 -2344 -3652 0
3652 -3651 -2344 -2406 0
2344 2406 -3651 3652 0
2406 3651 -2344 3652 0
2344 3651 -2406 3652 0
2456 2506 3652 -3653 0
3652 -2456 -2506 -3653 0
2456 -3652 -2506 -3653 0
2506 -3652 -2456 -3653 0
3653 -3652 -2456 -2506 0
2456 2506 -3652 3653 0
2506 3652 -2456 3653 0
2456 3652 -2506 3653 0
2556 2606 3653 -3654 0
3653 -2556 -2606 -3654 0
2556 -3653 -2606 -3654 0
2606 -3653 -2556 -3654 0
3654 -3653 -2556 -2606 0
2556 2606 -3653 3654 0
2606 3653 -2556 3654 0
2556 3653 -2606 3654 0
2653 2703 3654 -3655 0
3654 -2653 -2703 -3655 0
2653 -3654 -2703 -3655 0
2703 -3654 -2653 -3655 0
3655 -3654 -2653 -2703 0
2653 2703 -3654 3655 0
2703 3654 -2653 3655 0
2653 3654 -2703 3655 0
2742 2806 3655 -3656 0
3655 -2742 -2806 -3656 0
2742 -3655 -2806 -3656 0
2806 -3655 -2742 -3656 0
3656 -3655 -2742 -2806 0
2742 2806 -3655 3656 0
2806 3655 -2742 3656 0
2742 3655 -2806 3656 0
2853 2906 3656 -3657 0
3656 -2853 -2906 -3657 0
2853 -3656 -2906 -3657 0
2906 -3656 -2853 -3657 0
3657 -3656 -2853 -2906 0
2853 2906 -3656 3657 0
2906 3656 -2853 3657 0
2853 3656 -2906 3657 0
2039 2086 2136 -3658 0
2039 -2086 -2136 -3658 0
2086 -2039 -2136 -3658 0
2136 -2039 -2086 -3658 0
-2039 -2086 -2136 3658 0
2086 2136 -2039 3658 0
2039 2136 -2086 3658 0
2039 2086 -2136 3658 0
2186 2236 3658 -3659 0
3658 -2186 -2236 -3659 0
2186 -3658 -2236 -3659 0
2236 -3658 -2186 -3659 0
3659 -3658 -2186 -2236 0
2186 2236 -3658 3659 0
2236 3658 -2186 3659 0
2186 3658 -2236 3659 0
2286 2336 3659 -3660 0
3659 -2286 -2336 -3660 0
2286 -3659 -2336 -3660 0
2336 -3659 -2286 -3660 0
3660 -3659 -2286 -2336 0
2286 2336 -3659 3660 0
2336 3659 -2286 3660 0
2286 3659 -2336 3660 0
2386 2436 3660 -3661 0
3660 -2386 -2436 -3661 0
2386 -3660 -2436 -3661 0
2436 -3660 -2386 -3661 0
3661 -3660 -2386 -2436 0
2386 2436 -3660 3661 0
2436 3660 -2386 3661 0
2386 3660 -2436 3661 0
2486 2536 3661 -3662 0
3661 -2486 -2536 -3662 0
2486 -3661 -2536 -3662 0
2536 -3661 -2486 -3662 0
3662 -3661 -2486 -2536 0
2486 2536 -3661 3662 0
2536 3661 -2486 3662 0
2486 3661 -2536 3662 0
2586 2636 3662 -3663 0
3662 -2586 -2636 -3663 0
2586 -3662 -2636 -3663 0
2636 -3662 -2586 -3663 0
3663 -3662 -2586 -2636 0
2586 2636 -3662 3663 0
2636 3662 -2586 3663 0
2586 3662 -2636 3663 0
2686 2736 3663 -3664 0
3663 -2686 -2736 -3664 0
2686 -3663 -2736 -3664 0
2736 -3663 -2686 -3664 0
3664 -3663 -2686 -2736 0
2686 2736 -3663 3664 0
2736 3663 -2686 3664 0
2686 3663 -2736 3664 0
2786 2836 3664 -3665 0
3664 -2786 -2836 -3665 0
2786 -3664 -2836 -3665 0
2836 -3664 -2786 -3665 0
3665 -3664 -2786 -2836 0
2786 2836 -3664 3665 0
2836 3664 -2786 3665 0
2786 3664 -2836 3665 0
2886 2936 3665 -3666 0
3665 -2886 -2936 -3666 0
2886 -3665 -2936 -3666 0
2936 -3665 -2886 -3666 0
3666 -3665 -2886 -2936 0
2886 2936 -3665 3666 0
2936 3665 -2886 3666 0
2886 3665 -2936 3666 0
2944 3657 3666 -3667 0
-3657 3666 -2944 -3667 0
3657 -3666 -2944 -3667 0
2944 -3657 -3666 -3667 0
-3657 -3666 -2944 3667 0
2944 3657 -3666 3667 0
2944 -3657 3666 3667 0
3657 3666 -2944 3667 0
34 -96 -3668 0
96 -34 -3668 0
3668 -34 -96 0
3668 34 96 0
158 223 3668 -3669 0
3668 -158 -223 -3669 0
158 -3668 -223 -3669 0
223 -3668 -158 -3669 0
3669 -3668 -158 -223 0
158 223 -3668 3669 0
223 3668 -158 3669 0
158 3668 -223 3669 0
282 344 3669 -3670 0
3669 -282 -344 -3670 0
282 -3669 -344 -3670 0
344 -3669 -282 -3670 0
3670 -3669 -282 -344 0
282 344 -3669 3670 0
344 3669 -282 3670 0
282 3669 -344 3670 0
409 468 3670 -3671 0
3670 -409 -468 -3671 0
409 -3670 -468 -3671 0
468 -3670 -409 -3671 0
3671 -3670 -409 -468 0
409 468 -3670 3671 0
468 3670 -409 3671 0
409 3670 -468 3671 0
530 595 3671 -3672 0
3671 -530 -595 -3672 0
530 -3671 -595 -3672 0
595 -3671 -530 -3672 0
3672 -3671 -530 -595 0
530 595 -3671 3672 0
595 3671 -530 3672 0
530 3671 -595 3672 0
654 3271 3672 -3673 0
-3271 3672 -654 -3673 0
654 -3271 -3672 -3673 0
3271 -3672 -654 -3673 0
-3271 -3672 -654 3673 0
654 3271 -3672 3673 0
3271 3672 -654 3673 0
654 -3271 3672 3673 0
698 781 3673 -3674 0
3673 -698 -781 -3674 0
698 -3673 -781 -3674 0
781 -3673 -698 -3674 0
3674 -3673 -698 -781 0
698 781 -3673 3674 0
781 3673 -698 3674 0
698 3673 -781 3674 0
843 905 3674 -3675 0
3674 -843 -905 -3675 0
843 -3674 -905 -3675 0
905 -3674 -843 -3675 0
3675 -3674 -843 -905 0
843 905 -3674 3675 0
905 3674 -843 3675 0
843 3674 -905 3675 0
967 1026 3675 -3676 0
3675 -967 -1026 -3676 0
967 -3675 -1026 -3676 0
1026 -3675 -967 -3676 0
3676 -3675 -967 -1026 0
967 1026 -3675 3676 0
1026 3675 -967 3676 0
967 3675 -1026 3676 0
1091 1150 3676 -3677 0
3676 -1091 -1150 -3677 0
1091 -3676 -1150 -3677 0
1150 -3676 -1091 -3677 0
3677 -3676 -1091 -1150 0
1091 1150 -3676 3677 0
1150 3676 -1091 3677 0
1091 3676 -1150 3677 0
1212 1277 3677 -3678 0
3677 -1212 -1277 -3678 0
1212 -3677 -1277 -3678 0
1277 -3677 -1212 -3678 0
3678 -3677 -1212 -1277 0
1212 1277 -3677 3678 0
1277 3677 -1212 3678 0
1212 3677 -1277 3678 0
1336 1398 3678 -3679 0
3678 -1336 -1398 -3679 0
1336 -3678 -1398 -3679 0
1398 -3678 -1336 -3679 0
3679 -3678 -1336 -1398 0
1336 1398 -3678 3679 0
1398 3678 -1336 3679 0
1336 3678 -1398 3679 0
1460 1522 3679 -3680 0
3679 -1460 -1522 -3680 0
1460 -3679 -1522 -3680 0
1522 -3679 -1460 -3680 0
3680 -3679 -1460 -1522 0
1460 1522 -3679 3680 0
1522 3679 -1460 3680 0
1460 3679 -1522 3680 0
3680 -1564 -3681 0
1564 -3680 -3681 0
3681 -3680 -1564 0
1564 3680 3681 0
1646 1711 3681 -3682 0
3681 -1646 -1711 -3682 0
1646 -3681 -1711 -3682 0
1711 -3681 -1646 -3682 0
3682 -3681 -1646 -1711 0
1646 1711 -3681 3682 0
1711 3681 -1646 3682 0
1646 3681 -1711 3682 0
1770 1835 3682 -3683 0
3682 -1770 -1835 -3683 0
1770 -3682 -1835 -3683 0
1835 -3682 -1770 -3683 0
3683 -3682 -1770 -1835 0
1770 1835 -3682 3683 0
1835 3682 -1770 3683 0
1770 3682 -1835 3683 0
1897 1959 3683 -3684 0
3683 -1897 -1959 -3684 0
1897 -3683 -1959 -3684 0
1959 -3683 -1897 -3684 0
3684 -3683 -1897 -1959 0
1897 1959 -3683 3684 0
1959 3683 -1897 3684 0
1897 3683 -1959 3684 0
2062 2112 3684 -3685 0
3684 -2062 -2112 -3685 0
2062 -3684 -2112 -3685 0
2112 -3684 -2062 -3685 0
3685 -3684 -2062 -2112 0
2062 2112 -3684 3685 0
2112 3684 -2062 3685 0
2062 3684 -2112 3685 0
2162 2212 3685 -3686 0
3685 -2162 -2212 -3686 0
2162 -3685 -2212 -3686 0
2212 -3685 -2162 -3686 0
3686 -3685 -2162 -2212 0
2162 2212 -3685 3686 0
2212 3685 -2162 3686 0
2162 3685 -2212 3686 0
2262 2312 3686 -3687 0
3686 -2262 -2312 -3687 0
2262 -3686 -2312 -3687 0
2312 -3686 -2262 -3687 0
3687 -3686 -2262 -2312 0
2262 2312 -3686 3687 0
2312 3686 -2262 3687 0
2262 3686 -2312 3687 0
2362 2412 3687 -3688 0
3687 -2362 -2412 -3688 0
2362 -3687 -2412 -3688 0
2412 -3687 -2362 -3688 0
3688 -3687 -2362 -2412 0
2362 2412 -3687 3688 0
2412 3687 -2362 3688 0
2362 3687 -2412 3688 0
2444 3597 3688 -3689 0
-3597 3688 -2444 -3689 0
3597 -3688 -2444 -3689 0
2444 -3597 -3688 -3689 0
-3597 -3688 -2444 3689 0
2444 3597 -3688 3689 0
2444 -3597 3688 3689 0
3597 3688 -2444 3689 0
2515 2565 3689 -3690 0
3689 -2515 -2565 -3690 0
2515 -3689 -2565 -3690 0
2565 -3689 -2515 -3690 0
-3689 -2515 -2565 3690 0
2515 2565 -3689 3690 0
2565 3689 -2515 3690 0
2515 3689 -2565 3690 0
2615 2662 3690 -3691 0
3690 -2615 -2662 -3691 0
2615 -3690 -2662 -3691 0
2662 -3690 -2615 -3691 0
3691 -3690 -2615 -2662 0
2615 2662 -3690 3691 0
2662 3690 -2615 3691 0
2615 3690 -2662 3691 0
2712 2762 3691 -3692 0
3691 -2712 -2762 -3692 0
2712 -3691 -2762 -3692 0
2762 -3691 -2712 -3692 0
3692 -3691 -2712 -2762 0
2712 2762 -3691 3692 0
2762 3691 -2712 3692 0
2712 3691 -2762 3692 0
2812 2862 3692 -3693 0
3692 -2812 -2862 -3693 0
2812 -3692 -2862 -3693 0
2862 -3692 -2812 -3693 0
3693 -3692 -2812 -2862 0
2812 2862 -3692 3693 0
2862 3692 -2812 3693 0
2812 3692 -2862 3693 0
2912 2962 3693 -3694 0
3693 -2912 -2962 -3694 0
2912 -3693 -2962 -3694 0
2962 -3693 -2912 -3694 0
3694 -3693 -2912 -2962 0
2912 2962 -3693 3694 0
2962 3693 -2912 3694 0
2912 3693 -2962 3694 0
2994 3667 3694 -3695 0
-3667 3694 -2994 -3695 0
3667 -3694 -2994 -3695 0
2994 -3667 -3694 -3695 0
-3667 -3694 -2994 3695 0
2994 3667 -3694 3695 0
2994 -3667 3694 3695 0
3667 3694 -2994 3695 0
3089 3139 3695 -3696 0
3695 -3089 -3139 -3696 0
3089 -3695 -3139 -3696 0
3139 -3695 -3089 -3696 0
3696 -3695 -3089 -3139 0
3089 3139 -3695 3696 0
3139 3695 -3089 3696 0
3089 3695 -3139 3696 0
3189 3239 3696 -3697 0
3696 -3189 -3239 -3697 0
3189 -3696 -3239 -3697 0
3239 -3696 -3189 -3697 0
3697 -3696 -3189 -3239 0
3189 3239 -3696 3697 0
3239 3696 -3189 3697 0
3189 3696 -3239 3697 0
22 84 146 -3698 0
22 -84 -146 -3698 0
84 -22 -146 -3698 0
146 -22 -84 -3698 0
3698 -22 -84 -146 0
84 146 -22 3698 0
22 146 -84 3698 0
3698 22 84 -146 0
211 3292 3698 -3699 0
3292 -3698 -211 -3699 0
-3292 3698 -211 -3699 0
211 -3292 -3698 -3699 0
3699 -3292 -3698 -211 0
211 -3292 3698 3699 0
211 3292 -3698 3699 0
3292 3698 -211 3699 0
264 335 3699 -3700 0
3699 -264 -335 -3700 0
264 -3699 -335 -3700 0
335 -3699 -264 -3700 0
3700 -3699 -264 -335 0
264 335 -3699 3700 0
335 3699 -264 3700 0
264 3699 -335 3700 0
397 459 3700 -3701 0
3700 -397 -459 -3701 0
397 -3700 -459 -3701 0
459 -3700 -397 -3701 0
3701 -3700 -397 -459 0
397 459 -3700 3701 0
459 3700 -397 3701 0
397 3700 -459 3701 0
521 583 3701 -3702 0
3701 -521 -583 -3702 0
521 -3701 -583 -3702 0
583 -3701 -521 -3702 0
3702 -3701 -521 -583 0
521 583 -3701 3702 0
583 3701 -521 3702 0
521 3701 -583 3702 0
645 707 3702 -3703 0
3702 -645 -707 -3703 0
645 -3702 -707 -3703 0
707 -3702 -645 -3703 0
3703 -3702 -645 -707 0
645 707 -3702 3703 0
707 3702 -645 3703 0
645 3702 -707 3703 0
769 831 3703 -3704 0
3703 -769 -831 -3704 0
769 -3703 -831 -3704 0
831 -3703 -769 -3704 0
3704 -3703 -769 -831 0
769 831 -3703 3704 0
831 3703 -769 3704 0
769 3703 -831 3704 0
893 955 3704 -3705 0
3704 -893 -955 -3705 0
893 -3704 -955 -3705 0
955 -3704 -893 -3705 0
3705 -3704 -893 -955 0
893 955 -3704 3705 0
955 3704 -893 3705 0
893 3704 -955 3705 0
1014 1079 3705 -3706 0
3705 -1014 -1079 -3706 0
1014 -3705 -1079 -3706 0
1079 -3705 -1014 -3706 0
3706 -3705 -1014 -1079 0
1014 1079 -3705 3706 0
1079 3705 -1014 3706 0
1014 3705 -1079 3706 0
1138 1203 3706 -3707 0
3706 -1138 -1203 -3707 0
1138 -3706 -1203 -3707 0
1203 -3706 -1138 -3707 0
3707 -3706 -1138 -1203 0
1138 1203 -3706 3707 0
1203 3706 -1138 3707 0
1138 3706 -1203 3707 0
1265 1327 3707 -3708 0
3707 -1265 -1327 -3708 0
1265 -3707 -1327 -3708 0
1327 -3707 -1265 -3708 0
3708 -3707 -1265 -1327 0
1265 1327 -3707 3708 0
1327 3707 -1265 3708 0
1265 3707 -1327 3708 0
3708 -1378 -3709 0
1378 -3708 -3709 0
3709 -3708 -1378 0
1378 3708 3709 0
1451 1513 3709 -3710 0
3709 -1451 -1513 -3710 0
1451 -3709 -1513 -3710 0
1513 -3709 -1451 -3710 0
3710 -3709 -1451 -1513 0
1451 1513 -3709 3710 0
1513 3709 -1451 3710 0
1451 3709 -1513 3710 0
1575 1637 3710 -3711 0
3710 -1575 -1637 -3711 0
1575 -3710 -1637 -3711 0
1637 -3710 -1575 -3711 0
3711 -3710 -1575 -1637 0
1575 1637 -3710 3711 0
1637 3710 -1575 3711 0
1575 3710 -1637 3711 0
1699 1761 3711 -3712 0
3711 -1699 -1761 -3712 0
1699 -3711 -1761 -3712 0
1761 -3711 -1699 -3712 0
3712 -3711 -1699 -1761 0
1699 1761 -3711 3712 0
1761 3711 -1699 3712 0
1699 3711 -1761 3712 0
1823 1885 3712 -3713 0
3712 -1823 -1885 -3713 0
1823 -3712 -1885 -3713 0
1885 -3712 -1823 -3713 0
3713 -3712 -1823 -1885 0
1823 1885 -3712 3713 0
1885 3712 -1823 3713 0
1823 3712 -1885 3713 0
1947 2050 3713 -3714 0
3713 -1947 -2050 -3714 0
1947 -3713 -2050 -3714 0
2050 -3713 -1947 -3714 0
3714 -3713 -1947 -2050 0
1947 2050 -3713 3714 0
2050 3713 -1947 3714 0
1947 3713 -2050 3714 0
2100 2150 3714 -3715 0
3714 -2100 -2150 -3715 0
2100 -3714 -2150 -3715 0
2150 -3714 -2100 -3715 0
3715 -3714 -2100 -2150 0
2100 2150 -3714 3715 0
2150 3714 -2100 3715 0
2100 3714 -2150 3715 0
2194 3520 3715 -3716 0
-3520 3715 -2194 -3716 0
3520 -3715 -2194 -3716 0
2194 -3520 -3715 -3716 0
-3520 -3715 -2194 3716 0
2194 3520 -3715 3716 0
2194 -3520 3715 3716 0
3520 3715 -2194 3716 0
2253 2303 3716 -3717 0
3716 -2253 -2303 -3717 0
2253 -3716 -2303 -3717 0
2303 -3716 -2253 -3717 0
3717 -3716 -2253 -2303 0
2253 2303 -3716 3717 0
2303 3716 -2253 3717 0
2253 3716 -2303 3717 0
2353 2403 3717 -3718 0
3717 -2353 -2403 -3718 0
2353 -3717 -2403 -3718 0
2403 -3717 -2353 -3718 0
3718 -3717 -2353 -2403 0
2353 2403 -3717 3718 0
2403 3717 -2353 3718 0
2353 3717 -2403 3718 0
2453 2503 3718 -3719 0
3718 -2453 -2503 -3719 0
2453 -3718 -2503 -3719 0
2503 -3718 -2453 -3719 0
3719 -3718 -2453 -2503 0
2453 2503 -3718 3719 0
2503 3718 -2453 3719 0
2453 3718 -2503 3719 0
2553 2603 3719 -3720 0
3719 -2553 -2603 -3720 0
2553 -3719 -2603 -3720 0
2603 -3719 -2553 -3720 0
3720 -3719 -2553 -2603 0
2553 2603 -3719 3720 0
2603 3719 -2553 3720 0
2553 3719 -2603 3720 0
2650 2700 3720 -3721 0
3720 -2650 -2700 -3721 0
2650 -3720 -2700 -3721 0
2700 -3720 -2650 -3721 0
3721 -3720 -2650 -2700 0
2650 2700 -3720 3721 0
2700 3720 -2650 3721 0
2650 3720 -2700 3721 0
2753 2803 3721 -3722 0
3721 -2753 -2803 -3722 0
2753 -3721 -2803 -3722 0
2803 -3721 -2753 -3722 0
3722 -3721 -2753 -2803 0
2753 2803 -3721 3722 0
2803 3721 -2753 3722 0
2753 3721 -2803 3722 0
2038 2083 2133 -3723 0
2038 -2083 -2133 -3723 0
2083 -2038 -2133 -3723 0
2133 -2038 -2083 -3723 0
-2038 -2083 -2133 3723 0
2083 2133 -2038 3723 0
2038 2133 -2083 3723 0
2038 2083 -2133 3723 0
2183 2233 3723 -3724 0
3723 -2183 -2233 -3724 0
2183 -3723 -2233 -3724 0
2233 -3723 -2183 -3724 0
3724 -3723 -2183 -2233 0
2183 2233 -3723 3724 0
2233 3723 -2183 3724 0
2183 3723 -2233 3724 0
2283 2333 3724 -3725 0
3724 -2283 -2333 -3725 0
2283 -3724 -2333 -3725 0
2333 -3724 -2283 -3725 0
3725 -3724 -2283 -2333 0
2283 2333 -3724 3725 0
2333 3724 -2283 3725 0
2283 3724 -2333 3725 0
2383 2433 3725 -3726 0
3725 -2383 -2433 -3726 0
2383 -3725 -2433 -3726 0
2433 -3725 -2383 -3726 0
3726 -3725 -2383 -2433 0
2383 2433 -3725 3726 0
2433 3725 -2383 3726 0
2383 3725 -2433 3726 0
2483 2533 3726 -3727 0
3726 -2483 -2533 -3727 0
2483 -3726 -2533 -3727 0
2533 -3726 -2483 -3727 0
3727 -3726 -2483 -2533 0
2483 2533 -3726 3727 0
2533 3726 -2483 3727 0
2483 3726 -2533 3727 0
2583 2633 3727 -3728 0
3727 -2583 -2633 -3728 0
2583 -3727 -2633 -3728 0
2633 -3727 -2583 -3728 0
3728 -3727 -2583 -2633 0
2583 2633 -3727 3728 0
2633 3727 -2583 3728 0
2583 3727 -2633 3728 0
2683 2733 3728 -3729 0
3728 -2683 -2733 -3729 0
2683 -3728 -2733 -3729 0
2733 -3728 -2683 -3729 0
3729 -3728 -2683 -2733 0
2683 2733 -3728 3729 0
2733 3728 -2683 3729 0
2683 3728 -2733 3729 0
2783 2833 3729 -3730 0
3729 -2783 -2833 -3730 0
2783 -3729 -2833 -3730 0
2833 -3729 -2783 -3730 0
3730 -3729 -2783 -2833 0
2783 2833 -3729 3730 0
2833 3729 -2783 3730 0
2783 3729 -2833 3730 0
2844 3722 3730 -3731 0
-3722 3730 -2844 -3731 0
3722 -3730 -2844 -3731 0
2844 -3722 -3730 -3731 0
-3722 -3730 -2844 3731 0
2844 3722 -3730 3731 0
2844 -3722 3730 3731 0
3722 3730 -2844 3731 0
2894 3549 3731 -3732 0
-3549 3731 -2894 -3732 0
3549 -3731 -2894 -3732 0
2894 -3549 -3731 -3732 0
-3549 -3731 -2894 3732 0
2894 3549 -3731 3732 0
2894 -3549 3731 3732 0
3549 3731 -2894 3732 0
2986 3036 3732 -3733 0
3732 -2986 -3036 -3733 0
2986 -3732 -3036 -3733 0
3036 -3732 -2986 -3733 0
3733 -3732 -2986 -3036 0
2986 3036 -3732 3733 0
3036 3732 -2986 3733 0
2986 3732 -3036 3733 0
3086 3136 3733 -3734 0
3733 -3086 -3136 -3734 0
3086 -3733 -3136 -3734 0
3136 -3733 -3086 -3734 0
3734 -3733 -3086 -3136 0
3086 3136 -3733 3734 0
3136 3733 -3086 3734 0
3086 3733 -3136 3734 0
3186 3236 3734 -3735 0
3734 -3186 -3236 -3735 0
3186 -3734 -3236 -3735 0
3236 -3734 -3186 -3735 0
3735 -3734 -3186 -3236 0
3186 3236 -3734 3735 0
3236 3734 -3186 3735 0
3186 3734 -3236 3735 0
19 -14 -3736 0
14 -19 -3736 0
-19 -14 3736 0
14 19 3736 0
78 3290 3736 -3737 0
-3290 3736 -78 -3737 0
78 -3290 -3736 -3737 0
3290 -3736 -78 -3737 0
-3290 -3736 -78 3737 0
78 3290 -3736 3737 0
3290 3736 -78 3737 0
78 -3290 3736 3737 0
140 208 3737 -3738 0
3737 -140 -208 -3738 0
140 -3737 -208 -3738 0
208 -3737 -140 -3738 0
3738 -3737 -140 -208 0
140 208 -3737 3738 0
208 3737 -140 3738 0
140 3737 -208 3738 0
270 332 3738 -3739 0
3738 -270 -332 -3739 0
270 -3738 -332 -3739 0
332 -3738 -270 -3739 0
3739 -3738 -270 -332 0
270 332 -3738 3739 0
332 3738 -270 3739 0
270 3738 -332 3739 0
394 456 3739 -3740 0
3739 -394 -456 -3740 0
394 -3739 -456 -3740 0
456 -3739 -394 -3740 0
3740 -3739 -394 -456 0
394 456 -3739 3740 0
456 3739 -394 3740 0
394 3739 -456 3740 0
518 580 3740 -3741 0
3740 -518 -580 -3741 0
518 -3740 -580 -3741 0
580 -3740 -518 -3741 0
3741 -3740 -518 -580 0
518 580 -3740 3741 0
580 3740 -518 3741 0
518 3740 -580 3741 0
642 704 3741 -3742 0
3741 -642 -704 -3742 0
642 -3741 -704 -3742 0
704 -3741 -642 -3742 0
3742 -3741 -642 -704 0
642 704 -3741 3742 0
704 3741 -642 3742 0
642 3741 -704 3742 0
766 828 3742 -3743 0
3742 -766 -828 -3743 0
766 -3742 -828 -3743 0
828 -3742 -766 -3743 0
3743 -3742 -766 -828 0
766 828 -3742 3743 0
828 3742 -766 3743 0
766 3742 -828 3743 0
890 952 3743 -3744 0
3743 -890 -952 -3744 0
890 -3743 -952 -3744 0
952 -3743 -890 -3744 0
3744 -3743 -890 -952 0
890 952 -3743 3744 0
952 3743 -890 3744 0
890 3743 -952 3744 0
1011 1076 3744 -3745 0
3744 -1011 -1076 -3745 0
1011 -3744 -1076 -3745 0
1076 -3744 -1011 -3745 0
3745 -3744 -1011 -1076 0
1011 1076 -3744 3745 0
1076 3744 -1011 3745 0
1011 3744 -1076 3745 0
3745 -1130 -3746 0
1130 -3745 -3746 0
3746 -3745 -1130 0
1130 3745 3746 0
1200 1262 3746 -3747 0
3746 -1200 -1262 -3747 0
1200 -3746 -1262 -3747 0
1262 -3746 -1200 -3747 0
3747 -3746 -1200 -1262 0
1200 1262 -3746 3747 0
1262 3746 -1200 3747 0
1200 3746 -1262 3747 0
1324 1386 3747 -3748 0
3747 -1324 -1386 -3748 0
1324 -3747 -1386 -3748 0
1386 -3747 -1324 -3748 0
3748 -3747 -1324 -1386 0
1324 1386 -3747 3748 0
1386 3747 -1324 3748 0
1324 3747 -1386 3748 0
1448 1510 3748 -3749 0
3748 -1448 -1510 -3749 0
1448 -3748 -1510 -3749 0
1510 -3748 -1448 -3749 0
3749 -3748 -1448 -1510 0
1448 1510 -3748 3749 0
1510 3748 -1448 3749 0
1448 3748 -1510 3749 0
1572 1634 3749 -3750 0
3749 -1572 -1634 -3750 0
1572 -3749 -1634 -3750 0
1634 -3749 -1572 -3750 0
3750 -3749 -1572 -1634 0
1572 1634 -3749 3750 0
1634 3749 -1572 3750 0
1572 3749 -1634 3750 0
1696 1758 3750 -3751 0
3750 -1696 -1758 -3751 0
1696 -3750 -1758 -3751 0
1758 -3750 -1696 -3751 0
3751 -3750 -1696 -1758 0
1696 1758 -3750 3751 0
1758 3750 -1696 3751 0
1696 3750 -1758 3751 0
1820 1882 3751 -3752 0
3751 -1820 -1882 -3752 0
1820 -3751 -1882 -3752 0
1882 -3751 -1820 -3752 0
3752 -3751 -1820 -1882 0
1820 1882 -3751 3752 0
1882 3751 -1820 3752 0
1820 3751 -1882 3752 0
1944 2047 3752 -3753 0
3752 -1944 -2047 -3753 0
1944 -3752 -2047 -3753 0
2047 -3752 -1944 -3753 0
3753 -3752 -1944 -2047 0
1944 2047 -3752 3753 0
2047 3752 -1944 3753 0
1944 3752 -2047 3753 0
2042 2094 3753 -3754 0
3753 -2042 -2094 -3754 0
2042 -3753 -2094 -3754 0
2094 -3753 -2042 -3754 0
3754 -3753 -2042 -2094 0
2042 2094 -3753 3754 0
2094 3753 -2042 3754 0
2042 3753 -2094 3754 0
2144 3519 3754 -3755 0
3519 -3754 -2144 -3755 0
-3519 3754 -2144 -3755 0
2144 -3519 -3754 -3755 0
3755 -3519 -3754 -2144 0
2144 -3519 3754 3755 0
2144 3519 -3754 3755 0
3519 3754 -2144 3755 0
2200 2250 3755 -3756 0
3755 -2200 -2250 -3756 0
2200 -3755 -2250 -3756 0
2250 -3755 -2200 -3756 0
3756 -3755 -2200 -2250 0
2200 2250 -3755 3756 0
2250 3755 -2200 3756 0
2200 3755 -2250 3756 0
2300 2350 3756 -3757 0
3756 -2300 -2350 -3757 0
2300 -3756 -2350 -3757 0
2350 -3756 -2300 -3757 0
3757 -3756 -2300 -2350 0
2300 2350 -3756 3757 0
2350 3756 -2300 3757 0
2300 3756 -2350 3757 0
2400 2450 3757 -3758 0
3757 -2400 -2450 -3758 0
2400 -3757 -2450 -3758 0
2450 -3757 -2400 -3758 0
3758 -3757 -2400 -2450 0
2400 2450 -3757 3758 0
2450 3757 -2400 3758 0
2400 3757 -2450 3758 0
2500 2550 3758 -3759 0
3758 -2500 -2550 -3759 0
2500 -3758 -2550 -3759 0
2550 -3758 -2500 -3759 0
-3758 -2500 -2550 3759 0
2500 2550 -3758 3759 0
2550 3758 -2500 3759 0
2500 3758 -2550 3759 0
2600 2647 3759 -3760 0
3759 -2600 -2647 -3760 0
2600 -3759 -2647 -3760 0
2647 -3759 -2600 -3760 0
3760 -3759 -2600 -2647 0
2600 2647 -3759 3760 0
2647 3759 -2600 3760 0
2600 3759 -2647 3760 0
16 -81 -3761 0
81 -16 -3761 0
3761 -16 -81 0
3761 16 81 0
143 205 3761 -3762 0
3761 -143 -205 -3762 0
143 -3761 -205 -3762 0
205 -3761 -143 -3762 0
3762 -3761 -143 -205 0
143 205 -3761 3762 0
205 3761 -143 3762 0
143 3761 -205 3762 0
267 329 3762 -3763 0
3762 -267 -329 -3763 0
267 -3762 -329 -3763 0
329 -3762 -267 -3763 0
3763 -3762 -267 -329 0
267 329 -3762 3763 0
329 3762 -267 3763 0
267 3762 -329 3763 0
391 453 3763 -3764 0
3763 -391 -453 -3764 0
391 -3763 -453 -3764 0
453 -3763 -391 -3764 0
3764 -3763 -391 -453 0
391 453 -3763 3764 0
453 3763 -391 3764 0
391 3763 -453 3764 0
515 577 3764 -3765 0
3764 -515 -577 -3765 0
515 -3764 -577 -3765 0
577 -3764 -515 -3765 0
3765 -3764 -515 -577 0
515 577 -3764 3765 0
577 3764 -515 3765 0
515 3764 -577 3765 0
639 701 3765 -3766 0
3765 -639 -701 -3766 0
639 -3765 -701 -3766 0
701 -3765 -639 -3766 0
3766 -3765 -639 -701 0
639 701 -3765 3766 0
701 3765 -639 3766 0
639 3765 -701 3766 0
763 825 3766 -3767 0
3766 -763 -825 -3767 0
763 -3766 -825 -3767 0
825 -3766 -763 -3767 0
3767 -3766 -763 -825 0
763 825 -3766 3767 0
825 3766 -763 3767 0
763 3766 -825 3767 0
887 949 3767 -3768 0
3767 -887 -949 -3768 0
887 -3767 -949 -3768 0
949 -3767 -887 -3768 0
3768 -3767 -887 -949 0
887 949 -3767 3768 0
949 3767 -887 3768 0
887 3767 -949 3768 0
1006 1073 3768 -3769 0
3768 -1006 -1073 -3769 0
1006 -3768 -1073 -3769 0
1073 -3768 -1006 -3769 0
3769 -3768 -1006 -1073 0
1006 1073 -3768 3769 0
1073 3768 -1006 3769 0
1006 3768 -1073 3769 0
1135 1197 3769 -3770 0
3769 -1135 -1197 -3770 0
1135 -3769 -1197 -3770 0
1197 -3769 -1135 -3770 0
3770 -3769 -1135 -1197 0
1135 1197 -3769 3770 0
1197 3769 -1135 3770 0
1135 3769 -1197 3770 0
1259 1321 3770 -3771 0
3770 -1259 -1321 -3771 0
1259 -3770 -1321 -3771 0
1321 -3770 -1259 -3771 0
3771 -3770 -1259 -1321 0
1259 1321 -3770 3771 0
1321 3770 -1259 3771 0
1259 3770 -1321 3771 0
1383 1445 3771 -3772 0
3771 -1383 -1445 -3772 0
1383 -3771 -1445 -3772 0
1445 -3771 -1383 -3772 0
3772 -3771 -1383 -1445 0
1383 1445 -3771 3772 0
1445 3771 -1383 3772 0
1383 3771 -1445 3772 0
1507 1569 3772 -3773 0
3772 -1507 -1569 -3773 0
1507 -3772 -1569 -3773 0
1569 -3772 -1507 -3773 0
3773 -3772 -1507 -1569 0
1507 1569 -3772 3773 0
1569 3772 -1507 3773 0
1507 3772 -1569 3773 0
1631 1693 3773 -3774 0
3773 -1631 -1693 -3774 0
1631 -3773 -1693 -3774 0
1693 -3773 -1631 -3774 0
3774 -3773 -1631 -1693 0
1631 1693 -3773 3774 0
1693 3773 -1631 3774 0
1631 3773 -1693 3774 0
1755 1817 3774 -3775 0
3774 -1755 -1817 -3775 0
1755 -3774 -1817 -3775 0
1817 -3774 -1755 -3775 0
3775 -3774 -1755 -1817 0
1755 1817 -3774 3775 0
1817 3774 -1755 3775 0
1755 3774 -1817 3775 0
1879 1941 3775 -3776 0
3775 -1879 -1941 -3776 0
1879 -3775 -1941 -3776 0
1941 -3775 -1879 -3776 0
3776 -3775 -1879 -1941 0
1879 1941 -3775 3776 0
1941 3775 -1879 3776 0
1879 3775 -1941 3776 0
2044 2097 3776 -3777 0
3776 -2044 -2097 -3777 0
2044 -3776 -2097 -3777 0
2097 -3776 -2044 -3777 0
3777 -3776 -2044 -2097 0
2044 2097 -3776 3777 0
2097 3776 -2044 3777 0
2044 3776 -2097 3777 0
2147 2197 3777 -3778 0
3777 -2147 -2197 -3778 0
2147 -3777 -2197 -3778 0
2197 -3777 -2147 -3778 0
3778 -3777 -2147 -2197 0
2147 2197 -3777 3778 0
2197 3777 -2147 3778 0
2147 3777 -2197 3778 0
2247 2297 3778 -3779 0
3778 -2247 -2297 -3779 0
2247 -3778 -2297 -3779 0
2297 -3778 -2247 -3779 0
3779 -3778 -2247 -2297 0
2247 2297 -3778 3779 0
2297 3778 -2247 3779 0
2247 3778 -2297 3779 0
2347 2397 3779 -3780 0
3779 -2347 -2397 -3780 0
2347 -3779 -2397 -3780 0
2397 -3779 -2347 -3780 0
3780 -3779 -2347 -2397 0
2347 2397 -3779 3780 0
2397 3779 -2347 3780 0
2347 3779 -2397 3780 0
2447 2497 3780 -3781 0
3780 -2447 -2497 -3781 0
2447 -3780 -2497 -3781 0
2497 -3780 -2447 -3781 0
3781 -3780 -2447 -2497 0
2447 2497 -3780 3781 0
2497 3780 -2447 3781 0
2447 3780 -2497 3781 0
2547 2597 3781 -3782 0
3781 -2547 -2597 -3782 0
2547 -3781 -2597 -3782 0
2597 -3781 -2547 -3782 0
3782 -3781 -2547 -2597 0
2547 2597 -3781 3782 0
2597 3781 -2547 3782 0
2547 3781 -2597 3782 0
2037 2080 2130 -3783 0
2037 -2080 -2130 -3783 0
2080 -2037 -2130 -3783 0
2130 -2037 -2080 -3783 0
-2037 -2080 -2130 3783 0
2080 2130 -2037 3783 0
2037 2130 -2080 3783 0
2037 2080 -2130 3783 0
2180 2230 3783 -3784 0
3783 -2180 -2230 -3784 0
2180 -3783 -2230 -3784 0
2230 -3783 -2180 -3784 0
3784 -3783 -2180 -2230 0
2180 2230 -3783 3784 0
2230 3783 -2180 3784 0
2180 3783 -2230 3784 0
2280 2330 3784 -3785 0
3784 -2280 -2330 -3785 0
2280 -3784 -2330 -3785 0
2330 -3784 -2280 -3785 0
3785 -3784 -2280 -2330 0
2280 2330 -3784 3785 0
2330 3784 -2280 3785 0
2280 3784 -2330 3785 0
2380 2430 3785 -3786 0
3785 -2380 -2430 -3786 0
2380 -3785 -2430 -3786 0
2430 -3785 -2380 -3786 0
3786 -3785 -2380 -2430 0
2380 2430 -3785 3786 0
2430 3785 -2380 3786 0
2380 3785 -2430 3786 0
2480 2530 3786 -3787 0
3786 -2480 -2530 -3787 0
2480 -3786 -2530 -3787 0
2530 -3786 -2480 -3787 0
3787 -3786 -2480 -2530 0
2480 2530 -3786 3787 0
2530 3786 -2480 3787 0
2480 3786 -2530 3787 0
2580 2630 3787 -3788 0
3787 -2580 -2630 -3788 0
2580 -3787 -2630 -3788 0
2630 -3787 -2580 -3788 0
3788 -3787 -2580 -2630 0
2580 2630 -3787 3788 0
2630 3787 -2580 3788 0
2580 3787 -2630 3788 0
2644 3782 3788 -3789 0
-3782 3788 -2644 -3789 0
3782 -3788 -2644 -3789 0
2644 -3782 -3788 -3789 0
-3782 -3788 -2644 3789 0
2644 3782 -3788 3789 0
2644 -3782 3788 3789 0
3782 3788 -2644 3789 0
2694 3760 3789 -3790 0
-3760 3789 -2694 -3790 0
3760 -3789 -2694 -3790 0
2694 -3760 -3789 -3790 0
-3760 -3789 -2694 3790 0
2694 3760 -3789 3790 0
2694 -3760 3789 3790 0
3760 3789 -2694 3790 0
2744 3655 3790 -3791 0
3655 -3790 -2744 -3791 0
-3655 3790 -2744 -3791 0
2744 -3655 -3790 -3791 0
3791 -3655 -3790 -2744 0
2744 -3655 3790 3791 0
2744 3655 -3790 3791 0
3655 3790 -2744 3791 0
2794 3581 3791 -3792 0
-3581 3791 -2794 -3792 0
3581 -3791 -2794 -3792 0
2794 -3581 -3791 -3792 0
-3581 -3791 -2794 3792 0
2794 3581 -3791 3792 0
2794 -3581 3791 3792 0
3581 3791 -2794 3792 0
2883 2933 3792 -3793 0
3792 -2883 -2933 -3793 0
2883 -3792 -2933 -3793 0
2933 -3792 -2883 -3793 0
3793 -3792 -2883 -2933 0
2883 2933 -3792 3793 0
2933 3792 -2883 3793 0
2883 3792 -2933 3793 0
2983 3033 3793 -3794 0
3793 -2983 -3033 -3794 0
2983 -3793 -3033 -3794 0
3033 -3793 -2983 -3794 0
3794 -3793 -2983 -3033 0
2983 3033 -3793 3794 0
3033 3793 -2983 3794 0
2983 3793 -3033 3794 0
3083 3133 3794 -3795 0
3794 -3083 -3133 -3795 0
3083 -3794 -3133 -3795 0
3133 -3794 -3083 -3795 0
3795 -3794 -3083 -3133 0
3083 3133 -3794 3795 0
3133 3794 -3083 3795 0
3083 3794 -3133 3795 0
3183 3233 3795 -3796 0
3795 -3183 -3233 -3796 0
3183 -3795 -3233 -3796 0
3233 -3795 -3183 -3796 0
3796 -3795 -3183 -3233 0
3183 3233 -3795 3796 0
3233 3795 -3183 3796 0
3183 3795 -3233 3796 0
3328 -1877 -3797 0
1877 -3328 -3797 0
3797 -3328 -1877 0
1877 3328 3797 0
41 103 165 -3798 0
41 -103 -165 -3798 0
103 -41 -165 -3798 0
165 -41 -103 -3798 0
3798 -41 -103 -165 0
103 165 -41 3798 0
41 165 -103 3798 0
3798 41 103 -165 0
230 289 3798 -3799 0
3798 -230 -289 -3799 0
230 -3798 -289 -3799 0
289 -3798 -230 -3799 0
3799 -3798 -230 -289 0
230 289 -3798 3799 0
289 3798 -230 3799 0
230 3798 -289 3799 0
351 416 3799 -3800 0
3799 -351 -416 -3800 0
351 -3799 -416 -3800 0
416 -3799 -351 -3800 0
3800 -3799 -351 -416 0
351 416 -3799 3800 0
416 3799 -351 3800 0
351 3799 -416 3800 0
475 537 3800 -3801 0
3800 -475 -537 -3801 0
475 -3800 -537 -3801 0
537 -3800 -475 -3801 0
3801 -3800 -475 -537 0
475 537 -3800 3801 0
537 3800 -475 3801 0
475 3800 -537 3801 0
602 661 3801 -3802 0
3801 -602 -661 -3802 0
602 -3801 -661 -3802 0
661 -3801 -602 -3802 0
-3801 -602 -661 3802 0
602 661 -3801 3802 0
661 3801 -602 3802 0
602 3801 -661 3802 0
723 788 3802 -3803 0
3802 -723 -788 -3803 0
723 -3802 -788 -3803 0
788 -3802 -723 -3803 0
3803 -3802 -723 -788 0
723 788 -3802 3803 0
788 3802 -723 3803 0
723 3802 -788 3803 0
847 909 3803 -3804 0
3803 -847 -909 -3804 0
847 -3803 -909 -3804 0
909 -3803 -847 -3804 0
3804 -3803 -847 -909 0
847 909 -3803 3804 0
909 3803 -847 3804 0
847 3803 -909 3804 0
3804 -947 -3805 0
947 -3804 -3805 0
3805 -3804 -947 0
947 3804 3805 0
1033 1098 3805 -3806 0
3805 -1033 -1098 -3806 0
1033 -3805 -1098 -3806 0
1098 -3805 -1033 -3806 0
3806 -3805 -1033 -1098 0
1033 1098 -3805 3806 0
1098 3805 -1033 3806 0
1033 3805 -1098 3806 0
1157 1219 3806 -3807 0
3806 -1157 -1219 -3807 0
1157 -3806 -1219 -3807 0
1219 -3806 -1157 -3807 0
3807 -3806 -1157 -1219 0
1157 1219 -3806 3807 0
1219 3806 -1157 3807 0
1157 3806 -1219 3807 0
1284 1343 3807 -3808 0
3807 -1284 -1343 -3808 0
1284 -3807 -1343 -3808 0
1343 -3807 -1284 -3808 0
3808 -3807 -1284 -1343 0
1284 1343 -3807 3808 0
1343 3807 -1284 3808 0
1284 3807 -1343 3808 0
1405 1467 3808 -3809 0
3808 -1405 -1467 -3809 0
1405 -3808 -1467 -3809 0
1467 -3808 -1405 -3809 0
3809 -3808 -1405 -1467 0
1405 1467 -3808 3809 0
1467 3808 -1405 3809 0
1405 3808 -1467 3809 0
1529 1591 3809 -3810 0
3809 -1529 -1591 -3810 0
1529 -3809 -1591 -3810 0
1591 -3809 -1529 -3810 0
3810 -3809 -1529 -1591 0
1529 1591 -3809 3810 0
1591 3809 -1529 3810 0
1529 3809 -1591 3810 0
1653 1718 3810 -3811 0
3810 -1653 -1718 -3811 0
1653 -3810 -1718 -3811 0
1718 -3810 -1653 -3811 0
3811 -3810 -1653 -1718 0
1653 1718 -3810 3811 0
1718 3810 -1653 3811 0
1653 3810 -1718 3811 0
1777 1839 3811 -3812 0
3811 -1777 -1839 -3812 0
1777 -3811 -1839 -3812 0
1839 -3811 -1777 -3812 0
3812 -3811 -1777 -1839 0
1777 1839 -3811 3812 0
1839 3811 -1777 3812 0
1777 3811 -1839 3812 0
1904 3797 3812 -3813 0
-3797 3812 -1904 -3813 0
1904 -3797 -3812 -3813 0
3797 -3812 -1904 -3813 0
-3797 -3812 -1904 3813 0
1904 3797 -3812 3813 0
3797 3812 -1904 3813 0
1904 -3797 3812 3813 0
1937 2069 3813 -3814 0
3813 -1937 -2069 -3814 0
1937 -3813 -2069 -3814 0
2069 -3813 -1937 -3814 0
3814 -3813 -1937 -2069 0
1937 2069 -3813 3814 0
2069 3813 -1937 3814 0
1937 3813 -2069 3814 0
2119 2169 3814 -3815 0
3814 -2119 -2169 -3815 0
2119 -3814 -2169 -3815 0
2169 -3814 -2119 -3815 0
3815 -3814 -2119 -2169 0
2119 2169 -3814 3815 0
2169 3814 -2119 3815 0
2119 3814 -2169 3815 0
2219 2269 3815 -3816 0
3815 -2219 -2269 -3816 0
2219 -3815 -2269 -3816 0
2269 -3815 -2219 -3816 0
3816 -3815 -2219 -2269 0
2219 2269 -3815 3816 0
2269 3815 -2219 3816 0
2219 3815 -2269 3816 0
2319 2369 3816 -3817 0
3816 -2319 -2369 -3817 0
2319 -3816 -2369 -3817 0
2369 -3816 -2319 -3817 0
3817 -3816 -2319 -2369 0
2319 2369 -3816 3817 0
2369 3816 -2319 3817 0
2319 3816 -2369 3817 0
2419 2469 3817 -3818 0
3817 -2419 -2469 -3818 0
2419 -3817 -2469 -3818 0
2469 -3817 -2419 -3818 0
3818 -3817 -2419 -2469 0
2419 2469 -3817 3818 0
2469 3817 -2419 3818 0
2419 3817 -2469 3818 0
2519 2569 3818 -3819 0
3818 -2519 -2569 -3819 0
2519 -3818 -2569 -3819 0
2569 -3818 -2519 -3819 0
-3818 -2519 -2569 3819 0
2519 2569 -3818 3819 0
2569 3818 -2519 3819 0
2519 3818 -2569 3819 0
38 100 162 -3820 0
38 -100 -162 -3820 0
100 -38 -162 -3820 0
162 -38 -100 -3820 0
3820 -38 -100 -162 0
100 162 -38 3820 0
38 162 -100 3820 0
3820 38 100 -162 0
227 286 3820 -3821 0
3820 -227 -286 -3821 0
227 -3820 -286 -3821 0
286 -3820 -227 -3821 0
3821 -3820 -227 -286 0
227 286 -3820 3821 0
286 3820 -227 3821 0
227 3820 -286 3821 0
348 413 3821 -3822 0
3821 -348 -413 -3822 0
348 -3821 -413 -3822 0
413 -3821 -348 -3822 0
3822 -3821 -348 -413 0
348 413 -3821 3822 0
413 3821 -348 3822 0
348 3821 -413 3822 0
472 534 3822 -3823 0
3822 -472 -534 -3823 0
472 -3822 -534 -3823 0
534 -3822 -472 -3823 0
3823 -3822 -472 -534 0
472 534 -3822 3823 0
534 3822 -472 3823 0
472 3822 -534 3823 0
599 658 3823 -3824 0
3823 -599 -658 -3824 0
599 -3823 -658 -3824 0
658 -3823 -599 -3824 0
-3823 -599 -658 3824 0
599 658 -3823 3824 0
658 3823 -599 3824 0
599 3823 -658 3824 0
720 785 3824 -3825 0
3824 -720 -785 -3825 0
720 -3824 -785 -3825 0
785 -3824 -720 -3825 0
3825 -3824 -720 -785 0
720 785 -3824 3825 0
785 3824 -720 3825 0
720 3824 -785 3825 0
3825 -823 -3826 0
823 -3825 -3826 0
3826 -3825 -823 0
823 3825 3826 0
885 971 3826 -3827 0
3826 -885 -971 -3827 0
885 -3826 -971 -3827 0
971 -3826 -885 -3827 0
3827 -3826 -885 -971 0
885 971 -3826 3827 0
971 3826 -885 3827 0
885 3826 -971 3827 0
1030 1095 3827 -3828 0
3827 -1030 -1095 -3828 0
1030 -3827 -1095 -3828 0
1095 -3827 -1030 -3828 0
3828 -3827 -1030 -1095 0
1030 1095 -3827 3828 0
1095 3827 -1030 3828 0
1030 3827 -1095 3828 0
1154 1216 3828 -3829 0
3828 -1154 -1216 -3829 0
1154 -3828 -1216 -3829 0
1216 -3828 -1154 -3829 0
3829 -3828 -1154 -1216 0
1154 1216 -3828 3829 0
1216 3828 -1154 3829 0
1154 3828 -1216 3829 0
1281 1340 3829 -3830 0
3829 -1281 -1340 -3830 0
1281 -3829 -1340 -3830 0
1340 -3829 -1281 -3830 0
3830 -3829 -1281 -1340 0
1281 1340 -3829 3830 0
1340 3829 -1281 3830 0
1281 3829 -1340 3830 0
1402 1464 3830 -3831 0
3830 -1402 -1464 -3831 0
1402 -3830 -1464 -3831 0
1464 -3830 -1402 -3831 0
3831 -3830 -1402 -1464 0
1402 1464 -3830 3831 0
1464 3830 -1402 3831 0
1402 3830 -1464 3831 0
1526 1588 3831 -3832 0
3831 -1526 -1588 -3832 0
1526 -3831 -1588 -3832 0
1588 -3831 -1526 -3832 0
3832 -3831 -1526 -1588 0
1526 1588 -3831 3832 0
1588 3831 -1526 3832 0
1526 3831 -1588 3832 0
1650 1715 3832 -3833 0
3832 -1650 -1715 -3833 0
1650 -3832 -1715 -3833 0
1715 -3832 -1650 -3833 0
3833 -3832 -1650 -1715 0
1650 1715 -3832 3833 0
1715 3832 -1650 3833 0
1650 3832 -1715 3833 0
1774 3327 3833 -3834 0
-3327 3833 -1774 -3834 0
1774 -3327 -3833 -3834 0
3327 -3833 -1774 -3834 0
-3327 -3833 -1774 3834 0
1774 3327 -3833 3834 0
3327 3833 -1774 3834 0
1774 -3327 3833 3834 0
1813 1901 3834 -3835 0
3834 -1813 -1901 -3835 0
1813 -3834 -1901 -3835 0
1901 -3834 -1813 -3835 0
3835 -3834 -1813 -1901 0
1813 1901 -3834 3835 0
1901 3834 -1813 3835 0
1813 3834 -1901 3835 0
1963 2066 3835 -3836 0
3835 -1963 -2066 -3836 0
1963 -3835 -2066 -3836 0
2066 -3835 -1963 -3836 0
3836 -3835 -1963 -2066 0
1963 2066 -3835 3836 0
2066 3835 -1963 3836 0
1963 3835 -2066 3836 0
2116 2166 3836 -3837 0
3836 -2116 -2166 -3837 0
2116 -3836 -2166 -3837 0
2166 -3836 -2116 -3837 0
3837 -3836 -2116 -2166 0
2116 2166 -3836 3837 0
2166 3836 -2116 3837 0
2116 3836 -2166 3837 0
2216 2266 3837 -3838 0
3837 -2216 -2266 -3838 0
2216 -3837 -2266 -3838 0
2266 -3837 -2216 -3838 0
3838 -3837 -2216 -2266 0
2216 2266 -3837 3838 0
2266 3837 -2216 3838 0
2216 3837 -2266 3838 0
2316 2366 3838 -3839 0
3838 -2316 -2366 -3839 0
2316 -3838 -2366 -3839 0
2366 -3838 -2316 -3839 0
3839 -3838 -2316 -2366 0
2316 2366 -3838 3839 0
2366 3838 -2316 3839 0
2316 3838 -2366 3839 0
2416 2466 3839 -3840 0
3839 -2416 -2466 -3840 0
2416 -3839 -2466 -3840 0
2466 -3839 -2416 -3840 0
3840 -3839 -2416 -2466 0
2416 2466 -3839 3840 0
2466 3839 -2416 3840 0
2416 3839 -2466 3840 0
3840 -2495 -3841 0
2495 -3840 -3841 0
3841 -3840 -2495 0
2495 3840 3841 0
2036 2078 2128 -3842 0
2036 -2078 -2128 -3842 0
2078 -2036 -2128 -3842 0
2128 -2036 -2078 -3842 0
-2036 -2078 -2128 3842 0
2078 2128 -2036 3842 0
2036 2128 -2078 3842 0
2036 2078 -2128 3842 0
2178 2228 3842 -3843 0
3842 -2178 -2228 -3843 0
2178 -3842 -2228 -3843 0
2228 -3842 -2178 -3843 0
3843 -3842 -2178 -2228 0
2178 2228 -3842 3843 0
2228 3842 -2178 3843 0
2178 3842 -2228 3843 0
2278 2328 3843 -3844 0
3843 -2278 -2328 -3844 0
2278 -3843 -2328 -3844 0
2328 -3843 -2278 -3844 0
3844 -3843 -2278 -2328 0
2278 2328 -3843 3844 0
2328 3843 -2278 3844 0
2278 3843 -2328 3844 0
2378 2428 3844 -3845 0
3844 -2378 -2428 -3845 0
2378 -3844 -2428 -3845 0
2428 -3844 -2378 -3845 0
3845 -3844 -2378 -2428 0
2378 2428 -3844 3845 0
2428 3844 -2378 3845 0
2378 3844 -2428 3845 0
2478 2528 3845 -3846 0
3845 -2478 -2528 -3846 0
2478 -3845 -2528 -3846 0
2528 -3845 -2478 -3846 0
3846 -3845 -2478 -2528 0
2478 2528 -3845 3846 0
2528 3845 -2478 3846 0
2478 3845 -2528 3846 0
2543 3841 3846 -3847 0
-3841 3846 -2543 -3847 0
3841 -3846 -2543 -3847 0
2543 -3841 -3846 -3847 0
-3841 -3846 -2543 3847 0
2543 3841 -3846 3847 0
2543 -3841 3846 3847 0
3841 3846 -2543 3847 0
2593 3819 3847 -3848 0
-3819 3847 -2593 -3848 0
3819 -3847 -2593 -3848 0
2593 -3819 -3847 -3848 0
-3819 -3847 -2593 3848 0
2593 3819 -3847 3848 0
2593 -3819 3847 3848 0
3819 3847 -2593 3848 0
2681 2731 3848 -3849 0
3848 -2681 -2731 -3849 0
2681 -3848 -2731 -3849 0
2731 -3848 -2681 -3849 0
3849 -3848 -2681 -2731 0
2681 2731 -3848 3849 0
2731 3848 -2681 3849 0
2681 3848 -2731 3849 0
2781 2831 3849 -3850 0
3849 -2781 -2831 -3850 0
2781 -3849 -2831 -3850 0
2831 -3849 -2781 -3850 0
3850 -3849 -2781 -2831 0
2781 2831 -3849 3850 0
2831 3849 -2781 3850 0
2781 3849 -2831 3850 0
2881 2931 3850 -3851 0
3850 -2881 -2931 -3851 0
2881 -3850 -2931 -3851 0
2931 -3850 -2881 -3851 0
3851 -3850 -2881 -2931 0
2881 2931 -3850 3851 0
2931 3850 -2881 3851 0
2881 3850 -2931 3851 0
2981 3031 3851 -3852 0
3851 -2981 -3031 -3852 0
2981 -3851 -3031 -3852 0
3031 -3851 -2981 -3852 0
3852 -3851 -2981 -3031 0
2981 3031 -3851 3852 0
3031 3851 -2981 3852 0
2981 3851 -3031 3852 0
3081 3131 3852 -3853 0
3852 -3081 -3131 -3853 0
3081 -3852 -3131 -3853 0
3131 -3852 -3081 -3853 0
3853 -3852 -3081 -3131 0
3081 3131 -3852 3853 0
3131 3852 -3081 3853 0
3081 3852 -3131 3853 0
3181 3231 3853 -3854 0
3853 -3181 -3231 -3854 0
3181 -3853 -3231 -3854 0
3231 -3853 -3181 -3854 0
3854 -3853 -3181 -3231 0
3181 3231 -3853 3854 0
3231 3853 -3181 3854 0
3181 3853 -3231 3854 0
59 -121 -3855 0
121 -59 -3855 0
3855 -59 -121 0
3855 59 121 0
183 248 3855 -3856 0
3855 -183 -248 -3856 0
183 -3855 -248 -3856 0
248 -3855 -183 -3856 0
3856 -3855 -183 -248 0
183 248 -3855 3856 0
248 3855 -183 3856 0
183 3855 -248 3856 0
307 369 3856 -3857 0
3856 -307 -369 -3857 0
307 -3856 -369 -3857 0
369 -3856 -307 -3857 0
3857 -3856 -307 -369 0
307 369 -3856 3857 0
369 3856 -307 3857 0
307 3856 -369 3857 0
434 493 3857 -3858 0
3857 -434 -493 -3858 0
434 -3857 -493 -3858 0
493 -3857 -434 -3858 0
3858 -3857 -434 -493 0
434 493 -3857 3858 0
493 3857 -434 3858 0
434 3857 -493 3858 0
555 620 3858 -3859 0
3858 -555 -620 -3859 0
555 -3858 -620 -3859 0
620 -3858 -555 -3859 0
3859 -3858 -555 -620 0
555 620 -3858 3859 0
620 3858 -555 3859 0
555 3858 -620 3859 0
679 741 3859 -3860 0
3859 -679 -741 -3860 0
679 -3859 -741 -3860 0
741 -3859 -679 -3860 0
3860 -3859 -679 -741 0
679 741 -3859 3860 0
741 3859 -679 3860 0
679 3859 -741 3860 0
806 865 3860 -3861 0
3860 -806 -865 -3861 0
806 -3860 -865 -3861 0
865 -3860 -806 -3861 0
3861 -3860 -806 -865 0
806 865 -3860 3861 0
865 3860 -806 3861 0
806 3860 -865 3861 0
927 989 3861 -3862 0
3861 -927 -989 -3862 0
927 -3861 -989 -3862 0
989 -3861 -927 -3862 0
3862 -3861 -927 -989 0
927 989 -3861 3862 0
989 3861 -927 3862 0
927 3861 -989 3862 0
1051 1116 3862 -3863 0
3862 -1051 -1116 -3863 0
1051 -3862 -1116 -3863 0
1116 -3862 -1051 -3863 0
3863 -3862 -1051 -1116 0
1051 1116 -3862 3863 0
1116 3862 -1051 3863 0
1051 3862 -1116 3863 0
1175 1237 3863 -3864 0
3863 -1175 -1237 -3864 0
1175 -3863 -1237 -3864 0
1237 -3863 -1175 -3864 0
3864 -3863 -1175 -1237 0
1175 1237 -3863 3864 0
1237 3863 -1175 3864 0
1175 3863 -1237 3864 0
1302 1361 3864 -3865 0
3864 -1302 -1361 -3865 0
1302 -3864 -1361 -3865 0
1361 -3864 -1302 -3865 0
3865 -3864 -1302 -1361 0
1302 1361 -3864 3865 0
1361 3864 -1302 3865 0
1302 3864 -1361 3865 0
1423 1485 3865 -3866 0
3865 -1423 -1485 -3866 0
1423 -3865 -1485 -3866 0
1485 -3865 -1423 -3866 0
3866 -3865 -1423 -1485 0
1423 1485 -3865 3866 0
1485 3865 -1423 3866 0
1423 3865 -1485 3866 0
3866 -1505 -3867 0
1505 -3866 -3867 0
3867 -3866 -1505 0
1505 3866 3867 0
35 97 159 -3868 0
35 -97 -159 -3868 0
97 -35 -159 -3868 0
159 -35 -97 -3868 0
3868 -35 -97 -159 0
97 159 -35 3868 0
35 159 -97 3868 0
3868 35 97 -159 0
224 283 3868 -3869 0
3868 -224 -283 -3869 0
224 -3868 -283 -3869 0
283 -3868 -224 -3869 0
3869 -3868 -224 -283 0
224 283 -3868 3869 0
283 3868 -224 3869 0
224 3868 -283 3869 0
345 410 3869 -3870 0
3869 -345 -410 -3870 0
345 -3869 -410 -3870 0
410 -3869 -345 -3870 0
3870 -3869 -345 -410 0
345 410 -3869 3870 0
410 3869 -345 3870 0
345 3869 -410 3870 0
469 531 3870 -3871 0
3870 -469 -531 -3871 0
469 -3870 -531 -3871 0
531 -3870 -469 -3871 0
3871 -3870 -469 -531 0
469 531 -3870 3871 0
531 3870 -469 3871 0
469 3870 -531 3871 0
596 655 3871 -3872 0
3871 -596 -655 -3872 0
596 -3871 -655 -3872 0
655 -3871 -596 -3872 0
-3871 -596 -655 3872 0
596 655 -3871 3872 0
655 3871 -596 3872 0
596 3871 -655 3872 0
699 782 3872 -3873 0
3872 -699 -782 -3873 0
699 -3872 -782 -3873 0
782 -3872 -699 -3873 0
3873 -3872 -699 -782 0
699 782 -3872 3873 0
782 3872 -699 3873 0
699 3872 -782 3873 0
844 906 3873 -3874 0
3873 -844 -906 -3874 0
844 -3873 -906 -3874 0
906 -3873 -844 -3874 0
3874 -3873 -844 -906 0
844 906 -3873 3874 0
906 3873 -844 3874 0
844 3873 -906 3874 0
968 1027 3874 -3875 0
3874 -968 -1027 -3875 0
968 -3874 -1027 -3875 0
1027 -3874 -968 -3875 0
3875 -3874 -968 -1027 0
968 1027 -3874 3875 0
1027 3874 -968 3875 0
968 3874 -1027 3875 0
1092 1151 3875 -3876 0
3875 -1092 -1151 -3876 0
1092 -3875 -1151 -3876 0
1151 -3875 -1092 -3876 0
3876 -3875 -1092 -1151 0
1092 1151 -3875 3876 0
1151 3875 -1092 3876 0
1092 3875 -1151 3876 0
1213 1278 3876 -3877 0
3876 -1213 -1278 -3877 0
1213 -3876 -1278 -3877 0
1278 -3876 -1213 -3877 0
3877 -3876 -1213 -1278 0
1213 1278 -3876 3877 0
1278 3876 -1213 3877 0
1213 3876 -1278 3877 0
1337 1399 3877 -3878 0
3877 -1337 -1399 -3878 0
1337 -3877 -1399 -3878 0
1399 -3877 -1337 -3878 0
3878 -3877 -1337 -1399 0
1337 1399 -3877 3878 0
1399 3877 -1337 3878 0
1337 3877 -1399 3878 0
1461 1523 3878 -3879 0
3878 -1461 -1523 -3879 0
1461 -3878 -1523 -3879 0
1523 -3878 -1461 -3879 0
3879 -3878 -1461 -1523 0
1461 1523 -3878 3879 0
1523 3878 -1461 3879 0
1461 3878 -1523 3879 0
1565 3867 3879 -3880 0
-3867 3879 -1565 -3880 0
3867 -3879 -1565 -3880 0
1565 -3867 -3879 -3880 0
-3867 -3879 -1565 3880 0
1565 3867 -3879 3880 0
1565 -3867 3879 3880 0
3867 3879 -1565 3880 0
1647 1712 3880 -3881 0
3880 -1647 -1712 -3881 0
1647 -3880 -1712 -3881 0
1712 -3880 -1647 -3881 0
3881 -3880 -1647 -1712 0
1647 1712 -3880 3881 0
1712 3880 -1647 3881 0
1647 3880 -1712 3881 0
1771 1836 3881 -3882 0
3881 -1771 -1836 -3882 0
1771 -3881 -1836 -3882 0
1836 -3881 -1771 -3882 0
3882 -3881 -1771 -1836 0
1771 1836 -3881 3882 0
1836 3881 -1771 3882 0
1771 3881 -1836 3882 0
1898 1960 3882 -3883 0
3882 -1898 -1960 -3883 0
1898 -3882 -1960 -3883 0
1960 -3882 -1898 -3883 0
3883 -3882 -1898 -1960 0
1898 1960 -3882 3883 0
1960 3882 -1898 3883 0
1898 3882 -1960 3883 0
2063 2113 3883 -3884 0
3883 -2063 -2113 -3884 0
2063 -3883 -2113 -3884 0
2113 -3883 -2063 -3884 0
3884 -3883 -2063 -2113 0
2063 2113 -3883 3884 0
2113 3883 -2063 3884 0
2063 3883 -2113 3884 0
2163 2213 3884 -3885 0
3884 -2163 -2213 -3885 0
2163 -3884 -2213 -3885 0
2213 -3884 -2163 -3885 0
3885 -3884 -2163 -2213 0
2163 2213 -3884 3885 0
2213 3884 -2163 3885 0
2163 3884 -2213 3885 0
2263 2313 3885 -3886 0
3885 -2263 -2313 -3886 0
2263 -3885 -2313 -3886 0
2313 -3885 -2263 -3886 0
3886 -3885 -2263 -2313 0
2263 2313 -3885 3886 0
2313 3885 -2263 3886 0
2263 3885 -2313 3886 0
2363 2413 3886 -3887 0
3886 -2363 -2413 -3887 0
2363 -3886 -2413 -3887 0
2413 -3886 -2363 -3887 0
3887 -3886 -2363 -2413 0
2363 2413 -3886 3887 0
2413 3886 -2363 3887 0
2363 3886 -2413 3887 0
3394 -2245 -3888 0
2245 -3394 -3888 0
3888 -3394 -2245 0
2245 3394 3888 0
2310 2357 3888 -3889 0
3888 -2310 -2357 -3889 0
2310 -3888 -2357 -3889 0
2357 -3888 -2310 -3889 0
3889 -3888 -2310 -2357 0
2310 2357 -3888 3889 0
2357 3888 -2310 3889 0
2310 3888 -2357 3889 0
26 -88 -3890 0
88 -26 -3890 0
3890 -26 -88 0
3890 26 88 0
150 215 3890 -3891 0
3890 -150 -215 -3891 0
150 -3890 -215 -3891 0
215 -3890 -150 -3891 0
3891 -3890 -150 -215 0
150 215 -3890 3891 0
215 3890 -150 3891 0
150 3890 -215 3891 0
274 339 3891 -3892 0
3891 -274 -339 -3892 0
274 -3891 -339 -3892 0
339 -3891 -274 -3892 0
3892 -3891 -274 -339 0
274 339 -3891 3892 0
339 3891 -274 3892 0
274 3891 -339 3892 0
401 463 3892 -3893 0
3892 -401 -463 -3893 0
401 -3892 -463 -3893 0
463 -3892 -401 -3893 0
3893 -3892 -401 -463 0
401 463 -3892 3893 0
463 3892 -401 3893 0
401 3892 -463 3893 0
513 587 3893 -3894 0
3893 -513 -587 -3894 0
513 -3893 -587 -3894 0
587 -3893 -513 -3894 0
3894 -3893 -513 -587 0
513 587 -3893 3894 0
587 3893 -513 3894 0
513 3893 -587 3894 0
649 711 3894 -3895 0
3894 -649 -711 -3895 0
649 -3894 -711 -3895 0
711 -3894 -649 -3895 0
3895 -3894 -649 -711 0
649 711 -3894 3895 0
711 3894 -649 3895 0
649 3894 -711 3895 0
773 835 3895 -3896 0
3895 -773 -835 -3896 0
773 -3895 -835 -3896 0
835 -3895 -773 -3896 0
3896 -3895 -773 -835 0
773 835 -3895 3896 0
835 3895 -773 3896 0
773 3895 -835 3896 0
897 959 3896 -3897 0
3896 -897 -959 -3897 0
897 -3896 -959 -3897 0
959 -3896 -897 -3897 0
3897 -3896 -897 -959 0
897 959 -3896 3897 0
959 3896 -897 3897 0
897 3896 -959 3897 0
1018 1083 3897 -3898 0
3897 -1018 -1083 -3898 0
1018 -3897 -1083 -3898 0
1083 -3897 -1018 -3898 0
3898 -3897 -1018 -1083 0
1018 1083 -3897 3898 0
1083 3897 -1018 3898 0
1018 3897 -1083 3898 0
1142 3356 3898 -3899 0
-3356 3898 -1142 -3899 0
1142 -3356 -3898 -3899 0
3356 -3898 -1142 -3899 0
-3356 -3898 -1142 3899 0
1142 3356 -3898 3899 0
3356 3898 -1142 3899 0
1142 -3356 3898 3899 0
1193 1269 3899 -3900 0
3899 -1193 -1269 -3900 0
1193 -3899 -1269 -3900 0
1269 -3899 -1193 -3900 0
3900 -3899 -1193 -1269 0
1193 1269 -3899 3900 0
1269 3899 -1193 3900 0
1193 3899 -1269 3900 0
1331 1390 3900 -3901 0
3900 -1331 -1390 -3901 0
1331 -3900 -1390 -3901 0
1390 -3900 -1331 -3901 0
3901 -3900 -1331 -1390 0
1331 1390 -3900 3901 0
1390 3900 -1331 3901 0
1331 3900 -1390 3901 0
1455 3866 3901 -3902 0
-3866 3901 -1455 -3902 0
1455 -3866 -3901 -3902 0
3866 -3901 -1455 -3902 0
-3866 -3901 -1455 3902 0
1455 3866 -3901 3902 0
3866 3901 -1455 3902 0
1455 -3866 3901 3902 0
1503 1579 3902 -3903 0
3902 -1503 -1579 -3903 0
1503 -3902 -1579 -3903 0
1579 -3902 -1503 -3903 0
3903 -3902 -1503 -1579 0
1503 1579 -3902 3903 0
1579 3902 -1503 3903 0
1503 3902 -1579 3903 0
1641 1703 3903 -3904 0
3903 -1641 -1703 -3904 0
1641 -3903 -1703 -3904 0
1703 -3903 -1641 -3904 0
3904 -3903 -1641 -1703 0
1641 1703 -3903 3904 0
1703 3903 -1641 3904 0
1641 3903 -1703 3904 0
1765 1827 3904 -3905 0
3904 -1765 -1827 -3905 0
1765 -3904 -1827 -3905 0
1827 -3904 -1765 -3905 0
3905 -3904 -1765 -1827 0
1765 1827 -3904 3905 0
1827 3904 -1765 3905 0
1765 3904 -1827 3905 0
1889 1951 3905 -3906 0
3905 -1889 -1951 -3906 0
1889 -3905 -1951 -3906 0
1951 -3905 -1889 -3906 0
3906 -3905 -1889 -1951 0
1889 1951 -3905 3906 0
1951 3905 -1889 3906 0
1889 3905 -1951 3906 0
2054 2104 3906 -3907 0
3906 -2054 -2104 -3907 0
2054 -3906 -2104 -3907 0
2104 -3906 -2054 -3907 0
3907 -3906 -2054 -2104 0
2054 2104 -3906 3907 0
2104 3906 -2054 3907 0
2054 3906 -2104 3907 0
2154 2204 3907 -3908 0
3907 -2154 -2204 -3908 0
2154 -3907 -2204 -3908 0
2204 -3907 -2154 -3908 0
3908 -3907 -2154 -2204 0
2154 2204 -3907 3908 0
2204 3907 -2154 3908 0
2154 3907 -2204 3908 0
2257 2307 3908 -3909 0
3908 -2257 -2307 -3909 0
2257 -3908 -2307 -3909 0
2307 -3908 -2257 -3909 0
3909 -3908 -2257 -2307 0
2257 2307 -3908 3909 0
2307 3908 -2257 3909 0
2257 3908 -2307 3909 0
2035 2075 2125 -3910 0
2035 -2075 -2125 -3910 0
2075 -2035 -2125 -3910 0
2125 -2035 -2075 -3910 0
-2035 -2075 -2125 3910 0
2075 2125 -2035 3910 0
2035 2125 -2075 3910 0
2035 2075 -2125 3910 0
2175 2225 3910 -3911 0
3910 -2175 -2225 -3911 0
2175 -3910 -2225 -3911 0
2225 -3910 -2175 -3911 0
3911 -3910 -2175 -2225 0
2175 2225 -3910 3911 0
2225 3910 -2175 3911 0
2175 3910 -2225 3911 0
2275 2325 3911 -3912 0
3911 -2275 -2325 -3912 0
2275 -3911 -2325 -3912 0
2325 -3911 -2275 -3912 0
3912 -3911 -2275 -2325 0
2275 2325 -3911 3912 0
2325 3911 -2275 3912 0
2275 3911 -2325 3912 0
2343 3909 3912 -3913 0
-3909 3912 -2343 -3913 0
3909 -3912 -2343 -3913 0
2343 -3909 -3912 -3913 0
-3909 -3912 -2343 3913 0
2343 3909 -3912 3913 0
2343 -3909 3912 3913 0
3909 3912 -2343 3913 0
2393 3889 3913 -3914 0
-3889 3913 -2393 -3914 0
3889 -3913 -2393 -3914 0
2393 -3889 -3913 -3914 0
-3889 -3913 -2393 3914 0
2393 3889 -3913 3914 0
2393 -3889 3913 3914 0
3889 3913 -2393 3914 0
2443 3887 3914 -3915 0
-3887 3914 -2443 -3915 0
3887 -3914 -2443 -3915 0
2443 -3887 -3914 -3915 0
-3887 -3914 -2443 3915 0
2443 3887 -3914 3915 0
2443 -3887 3914 3915 0
3887 3914 -2443 3915 0
2493 3840 3915 -3916 0
3840 -3915 -2493 -3916 0
-3840 3915 -2493 -3916 0
2493 -3840 -3915 -3916 0
3916 -3840 -3915 -2493 0
2493 -3840 3915 3916 0
2493 3840 -3915 3916 0
3840 3915 -2493 3916 0
2578 2628 3916 -3917 0
3916 -2578 -2628 -3917 0
2578 -3916 -2628 -3917 0
2628 -3916 -2578 -3917 0
3917 -3916 -2578 -2628 0
2578 2628 -3916 3917 0
2628 3916 -2578 3917 0
2578 3916 -2628 3917 0
2678 2728 3917 -3918 0
3917 -2678 -2728 -3918 0
2678 -3917 -2728 -3918 0
2728 -3917 -2678 -3918 0
3918 -3917 -2678 -2728 0
2678 2728 -3917 3918 0
2728 3917 -2678 3918 0
2678 3917 -2728 3918 0
2778 2828 3918 -3919 0
3918 -2778 -2828 -3919 0
2778 -3918 -2828 -3919 0
2828 -3918 -2778 -3919 0
3919 -3918 -2778 -2828 0
2778 2828 -3918 3919 0
2828 3918 -2778 3919 0
2778 3918 -2828 3919 0
2878 2928 3919 -3920 0
3919 -2878 -2928 -3920 0
2878 -3919 -2928 -3920 0
2928 -3919 -2878 -3920 0
3920 -3919 -2878 -2928 0
2878 2928 -3919 3920 0
2928 3919 -2878 3920 0
2878 3919 -2928 3920 0
2978 3028 3920 -3921 0
3920 -2978 -3028 -3921 0
2978 -3920 -3028 -3921 0
3028 -3920 -2978 -3921 0
3921 -3920 -2978 -3028 0
2978 3028 -3920 3921 0
3028 3920 -2978 3921 0
2978 3920 -3028 3921 0
3078 3128 3921 -3922 0
3921 -3078 -3128 -3922 0
3078 -3921 -3128 -3922 0
3128 -3921 -3078 -3922 0
3922 -3921 -3078 -3128 0
3078 3128 -3921 3922 0
3128 3921 -3078 3922 0
3078 3921 -3128 3922 0
3178 3228 3922 -3923 0
3922 -3178 -3228 -3923 0
3178 -3922 -3228 -3923 0
3228 -3922 -3178 -3923 0
3923 -3922 -3178 -3228 0
3178 3228 -3922 3923 0
3228 3922 -3178 3923 0
3178 3922 -3228 3923 0
17 82 144 -3924 0
17 -82 -144 -3924 0
82 -17 -144 -3924 0
144 -17 -82 -3924 0
3924 -17 -82 -144 0
82 144 -17 3924 0
17 144 -82 3924 0
3924 17 82 -144 0
206 268 3924 -3925 0
3924 -206 -268 -3925 0
206 -3924 -268 -3925 0
268 -3924 -206 -3925 0
3925 -3924 -206 -268 0
206 268 -3924 3925 0
268 3924 -206 3925 0
206 3924 -268 3925 0
330 392 3925 -3926 0
3925 -330 -392 -3926 0
330 -3925 -392 -3926 0
392 -3925 -330 -3926 0
3926 -3925 -330 -392 0
330 392 -3925 3926 0
392 3925 -330 3926 0
330 3925 -392 3926 0
454 516 3926 -3927 0
3926 -454 -516 -3927 0
454 -3926 -516 -3927 0
516 -3926 -454 -3927 0
3927 -3926 -454 -516 0
454 516 -3926 3927 0
516 3926 -454 3927 0
454 3926 -516 3927 0
578 640 3927 -3928 0
3927 -578 -640 -3928 0
578 -3927 -640 -3928 0
640 -3927 -578 -3928 0
-3927 -578 -640 3928 0
578 640 -3927 3928 0
640 3927 -578 3928 0
578 3927 -640 3928 0
702 764 3928 -3929 0
3928 -702 -764 -3929 0
702 -3928 -764 -3929 0
764 -3928 -702 -3929 0
3929 -3928 -702 -764 0
702 764 -3928 3929 0
764 3928 -702 3929 0
702 3928 -764 3929 0
826 888 3929 -3930 0
3929 -826 -888 -3930 0
826 -3929 -888 -3930 0
888 -3929 -826 -3930 0
3930 -3929 -826 -888 0
826 888 -3929 3930 0
888 3929 -826 3930 0
826 3929 -888 3930 0
950 3353 3930 -3931 0
3353 -3930 -950 -3931 0
-3353 3930 -950 -3931 0
950 -3353 -3930 -3931 0
3931 -3353 -3930 -950 0
950 -3353 3930 3931 0
950 3353 -3930 3931 0
3353 3930 -950 3931 0
1007 1074 3931 -3932 0
3931 -1007 -1074 -3932 0
1007 -3931 -1074 -3932 0
1074 -3931 -1007 -3932 0
3932 -3931 -1007 -1074 0
1007 1074 -3931 3932 0
1074 3931 -1007 3932 0
1007 3931 -1074 3932 0
1136 1198 3932 -3933 0
3932 -1136 -1198 -3933 0
1136 -3932 -1198 -3933 0
1198 -3932 -1136 -3933 0
3933 -3932 -1136 -1198 0
1136 1198 -3932 3933 0
1198 3932 -1136 3933 0
1136 3932 -1198 3933 0
1260 1322 3933 -3934 0
3933 -1260 -1322 -3934 0
1260 -3933 -1322 -3934 0
1322 -3933 -1260 -3934 0
3934 -3933 -1260 -1322 0
1260 1322 -3933 3934 0
1322 3933 -1260 3934 0
1260 3933 -1322 3934 0
1384 1446 3934 -3935 0
3934 -1384 -1446 -3935 0
1384 -3934 -1446 -3935 0
1446 -3934 -1384 -3935 0
3935 -3934 -1384 -1446 0
1384 1446 -3934 3935 0
1446 3934 -1384 3935 0
1384 3934 -1446 3935 0
1508 1570 3935 -3936 0
3935 -1508 -1570 -3936 0
1508 -3935 -1570 -3936 0
1570 -3935 -1508 -3936 0
3936 -3935 -1508 -1570 0
1508 1570 -3935 3936 0
1570 3935 -1508 3936 0
1508 3935 -1570 3936 0
1632 1694 3936 -3937 0
3936 -1632 -1694 -3937 0
1632 -3936 -1694 -3937 0
1694 -3936 -1632 -3937 0
3937 -3936 -1632 -1694 0
1632 1694 -3936 3937 0
1694 3936 -1632 3937 0
1632 3936 -1694 3937 0
1756 1818 3937 -3938 0
3937 -1756 -1818 -3938 0
1756 -3937 -1818 -3938 0
1818 -3937 -1756 -3938 0
3938 -3937 -1756 -1818 0
1756 1818 -3937 3938 0
1818 3937 -1756 3938 0
1756 3937 -1818 3938 0
1880 1942 3938 -3939 0
3938 -1880 -1942 -3939 0
1880 -3938 -1942 -3939 0
1942 -3938 -1880 -3939 0
3939 -3938 -1880 -1942 0
1880 1942 -3938 3939 0
1942 3938 -1880 3939 0
1880 3938 -1942 3939 0
2033 2043 3939 -3940 0
2033 -3939 -2043 -3940 0
-2033 3939 -2043 -3940 0
2043 -2033 -3939 -3940 0
-2033 -3939 -2043 3940 0
2043 -2033 3939 3940 0
2033 2043 -3939 3940 0
2033 3939 -2043 3940 0
2093 3440 3940 -3941 0
-3440 3940 -2093 -3941 0
3440 -3940 -2093 -3941 0
2093 -3440 -3940 -3941 0
-3440 -3940 -2093 3941 0
2093 3440 -3940 3941 0
2093 -3440 3940 3941 0
3440 3940 -2093 3941 0
2172 2222 3941 -3942 0
3941 -2172 -2222 -3942 0
2172 -3941 -2222 -3942 0
2222 -3941 -2172 -3942 0
3942 -3941 -2172 -2222 0
2172 2222 -3941 3942 0
2222 3941 -2172 3942 0
2172 3941 -2222 3942 0
2272 2322 3942 -3943 0
3942 -2272 -2322 -3943 0
2272 -3942 -2322 -3943 0
2322 -3942 -2272 -3943 0
3943 -3942 -2272 -2322 0
2272 2322 -3942 3943 0
2322 3942 -2272 3943 0
2272 3942 -2322 3943 0
2372 2422 3943 -3944 0
3943 -2372 -2422 -3944 0
2372 -3943 -2422 -3944 0
2422 -3943 -2372 -3944 0
3944 -3943 -2372 -2422 0
2372 2422 -3943 3944 0
2422 3943 -2372 3944 0
2372 3943 -2422 3944 0
2472 2522 3944 -3945 0
3944 -2472 -2522 -3945 0
2472 -3944 -2522 -3945 0
2522 -3944 -2472 -3945 0
3945 -3944 -2472 -2522 0
2472 2522 -3944 3945 0
2522 3944 -2472 3945 0
2472 3944 -2522 3945 0
2572 2622 3945 -3946 0
3945 -2572 -2622 -3946 0
2572 -3945 -2622 -3946 0
2622 -3945 -2572 -3946 0
3946 -3945 -2572 -2622 0
2572 2622 -3945 3946 0
2622 3945 -2572 3946 0
2572 3945 -2622 3946 0
2672 2722 3946 -3947 0
3946 -2672 -2722 -3947 0
2672 -3946 -2722 -3947 0
2722 -3946 -2672 -3947 0
3947 -3946 -2672 -2722 0
2672 2722 -3946 3947 0
2722 3946 -2672 3947 0
2672 3946 -2722 3947 0
2772 2822 3947 -3948 0
3947 -2772 -2822 -3948 0
2772 -3947 -2822 -3948 0
2822 -3947 -2772 -3948 0
3948 -3947 -2772 -2822 0
2772 2822 -3947 3948 0
2822 3947 -2772 3948 0
2772 3947 -2822 3948 0
2872 2922 3948 -3949 0
3948 -2872 -2922 -3949 0
2872 -3948 -2922 -3949 0
2922 -3948 -2872 -3949 0
3949 -3948 -2872 -2922 0
2872 2922 -3948 3949 0
2922 3948 -2872 3949 0
2872 3948 -2922 3949 0
2972 3022 3949 -3950 0
3949 -2972 -3022 -3950 0
2972 -3949 -3022 -3950 0
3022 -3949 -2972 -3950 0
3950 -3949 -2972 -3022 0
2972 3022 -3949 3950 0
3022 3949 -2972 3950 0
2972 3949 -3022 3950 0
3072 3122 3950 -3951 0
3950 -3072 -3122 -3951 0
3072 -3950 -3122 -3951 0
3122 -3950 -3072 -3951 0
3951 -3950 -3072 -3122 0
3072 3122 -3950 3951 0
3122 3950 -3072 3951 0
3072 3950 -3122 3951 0
3172 3222 3951 -3952 0
3951 -3172 -3222 -3952 0
3172 -3951 -3222 -3952 0
3222 -3951 -3172 -3952 0
3952 -3951 -3172 -3222 0
3172 3222 -3951 3952 0
3222 3951 -3172 3952 0
3172 3951 -3222 3952 0
10 -67 -3953 0
67 -10 -3953 0
-10 -67 3953 0
10 67 3953 0
129 191 3953 -3954 0
3953 -129 -191 -3954 0
129 -3953 -191 -3954 0
191 -3953 -129 -3954 0
3954 -3953 -129 -191 0
129 191 -3953 3954 0
191 3953 -129 3954 0
129 3953 -191 3954 0
256 315 3954 -3955 0
3954 -256 -315 -3955 0
256 -3954 -315 -3955 0
315 -3954 -256 -3955 0
3955 -3954 -256 -315 0
256 315 -3954 3955 0
315 3954 -256 3955 0
256 3954 -315 3955 0
377 442 3955 -3956 0
3955 -377 -442 -3956 0
377 -3955 -442 -3956 0
442 -3955 -377 -3956 0
3956 -3955 -377 -442 0
377 442 -3955 3956 0
442 3955 -377 3956 0
377 3955 -442 3956 0
501 563 3956 -3957 0
3956 -501 -563 -3957 0
501 -3956 -563 -3957 0
563 -3956 -501 -3957 0
3957 -3956 -501 -563 0
501 563 -3956 3957 0
563 3956 -501 3957 0
501 3956 -563 3957 0
628 687 3957 -3958 0
3957 -628 -687 -3958 0
628 -3957 -687 -3958 0
687 -3957 -628 -3958 0
-3957 -628 -687 3958 0
628 687 -3957 3958 0
687 3957 -628 3958 0
628 3957 -687 3958 0
749 814 3958 -3959 0
3958 -749 -814 -3959 0
749 -3958 -814 -3959 0
814 -3958 -749 -3959 0
3959 -3958 -749 -814 0
749 814 -3958 3959 0
814 3958 -749 3959 0
749 3958 -814 3959 0
873 935 3959 -3960 0
3959 -873 -935 -3960 0
873 -3959 -935 -3960 0
935 -3959 -873 -3960 0
3960 -3959 -873 -935 0
873 935 -3959 3960 0
935 3959 -873 3960 0
873 3959 -935 3960 0
997 1059 3960 -3961 0
3960 -997 -1059 -3961 0
997 -3960 -1059 -3961 0
1059 -3960 -997 -3961 0
3961 -3960 -997 -1059 0
997 1059 -3960 3961 0
1059 3960 -997 3961 0
997 3960 -1059 3961 0
1121 1183 3961 -3962 0
3961 -1121 -1183 -3962 0
1121 -3961 -1183 -3962 0
1183 -3961 -1121 -3962 0
3962 -3961 -1121 -1183 0
1121 1183 -3961 3962 0
1183 3961 -1121 3962 0
1121 3961 -1183 3962 0
1245 1307 3962 -3963 0
3962 -1245 -1307 -3963 0
1245 -3962 -1307 -3963 0
1307 -3962 -1245 -3963 0
3963 -3962 -1245 -1307 0
1245 1307 -3962 3963 0
1307 3962 -1245 3963 0
1245 3962 -1307 3963 0
1369 1431 3963 -3964 0
3963 -1369 -1431 -3964 0
1369 -3963 -1431 -3964 0
1431 -3963 -1369 -3964 0
3964 -3963 -1369 -1431 0
1369 1431 -3963 3964 0
1431 3963 -1369 3964 0
1369 3963 -1431 3964 0
1493 1555 3964 -3965 0
3964 -1493 -1555 -3965 0
1493 -3964 -1555 -3965 0
1555 -3964 -1493 -3965 0
3965 -3964 -1493 -1555 0
1493 1555 -3964 3965 0
1555 3964 -1493 3965 0
1493 3964 -1555 3965 0
1617 1679 3965 -3966 0
3965 -1617 -1679 -3966 0
1617 -3965 -1679 -3966 0
1679 -3965 -1617 -3966 0
3966 -3965 -1617 -1679 0
1617 1679 -3965 3966 0
1679 3965 -1617 3966 0
1617 3965 -1679 3966 0
3966 -1688 -3967 0
1688 -3966 -3967 0
3967 -3966 -1688 0
1688 3966 3967 0
1803 1865 3967 -3968 0
3967 -1803 -1865 -3968 0
1803 -3967 -1865 -3968 0
1865 -3967 -1803 -3968 0
3968 -3967 -1803 -1865 0
1803 1865 -3967 3968 0
1865 3967 -1803 3968 0
1803 3967 -1865 3968 0
8 61 123 -3969 0
8 -61 -123 -3969 0
61 -8 -123 -3969 0
123 -8 -61 -3969 0
-8 -61 -123 3969 0
61 123 -8 3969 0
8 123 -61 3969 0
8 61 -123 3969 0
185 250 3969 -3970 0
3969 -185 -250 -3970 0
185 -3969 -250 -3970 0
250 -3969 -185 -3970 0
3970 -3969 -185 -250 0
185 250 -3969 3970 0
250 3969 -185 3970 0
185 3969 -250 3970 0
309 371 3970 -3971 0
3970 -309 -371 -3971 0
309 -3970 -371 -3971 0
371 -3970 -309 -3971 0
3971 -3970 -309 -371 0
309 371 -3970 3971 0
371 3970 -309 3971 0
309 3970 -371 3971 0
436 495 3971 -3972 0
3971 -436 -495 -3972 0
436 -3971 -495 -3972 0
495 -3971 -436 -3972 0
3972 -3971 -436 -495 0
436 495 -3971 3972 0
495 3971 -436 3972 0
436 3971 -495 3972 0
557 622 3972 -3973 0
3972 -557 -622 -3973 0
557 -3972 -622 -3973 0
622 -3972 -557 -3973 0
3973 -3972 -557 -622 0
557 622 -3972 3973 0
622 3972 -557 3973 0
557 3972 -622 3973 0
681 743 3973 -3974 0
3973 -681 -743 -3974 0
681 -3973 -743 -3974 0
743 -3973 -681 -3974 0
3974 -3973 -681 -743 0
681 743 -3973 3974 0
743 3973 -681 3974 0
681 3973 -743 3974 0
808 867 3974 -3975 0
3974 -808 -867 -3975 0
808 -3974 -867 -3975 0
867 -3974 -808 -3975 0
3975 -3974 -808 -867 0
808 867 -3974 3975 0
867 3974 -808 3975 0
808 3974 -867 3975 0
929 991 3975 -3976 0
3975 -929 -991 -3976 0
929 -3975 -991 -3976 0
991 -3975 -929 -3976 0
3976 -3975 -929 -991 0
929 991 -3975 3976 0
991 3975 -929 3976 0
929 3975 -991 3976 0
1053 1118 3976 -3977 0
3976 -1053 -1118 -3977 0
1053 -3976 -1118 -3977 0
1118 -3976 -1053 -3977 0
3977 -3976 -1053 -1118 0
1053 1118 -3976 3977 0
1118 3976 -1053 3977 0
1053 3976 -1118 3977 0
1177 1239 3977 -3978 0
3977 -1177 -1239 -3978 0
1177 -3977 -1239 -3978 0
1239 -3977 -1177 -3978 0
3978 -3977 -1177 -1239 0
1177 1239 -3977 3978 0
1239 3977 -1177 3978 0
1177 3977 -1239 3978 0
1304 1363 3978 -3979 0
3978 -1304 -1363 -3979 0
1304 -3978 -1363 -3979 0
1363 -3978 -1304 -3979 0
3979 -3978 -1304 -1363 0
1304 1363 -3978 3979 0
1363 3978 -1304 3979 0
1304 3978 -1363 3979 0
1425 1487 3979 -3980 0
3979 -1425 -1487 -3980 0
1425 -3979 -1487 -3980 0
1487 -3979 -1425 -3980 0
3980 -3979 -1425 -1487 0
1425 1487 -3979 3980 0
1487 3979 -1425 3980 0
1425 3979 -1487 3980 0
1549 1611 3980 -3981 0
3980 -1549 -1611 -3981 0
1549 -3980 -1611 -3981 0
1611 -3980 -1549 -3981 0
3981 -3980 -1549 -1611 0
1549 1611 -3980 3981 0
1611 3980 -1549 3981 0
1549 3980 -1611 3981 0
1628 3569 3981 -3982 0
-3569 3981 -1628 -3982 0
3569 -3981 -1628 -3982 0
1628 -3569 -3981 -3982 0
-3569 -3981 -1628 3982 0
1628 3569 -3981 3982 0
1628 -3569 3981 3982 0
3569 3981 -1628 3982 0
1690 3966 3982 -3983 0
-3966 3982 -1690 -3983 0
3966 -3982 -1690 -3983 0
1690 -3966 -3982 -3983 0
-3966 -3982 -1690 3983 0
1690 3966 -3982 3983 0
1690 -3966 3982 3983 0
3966 3982 -1690 3983 0
1752 3538 3983 -3984 0
-3538 3983 -1752 -3984 0
3538 -3983 -1752 -3984 0
1752 -3538 -3983 -3984 0
-3538 -3983 -1752 3984 0
1752 3538 -3983 3984 0
1752 -3538 3983 3984 0
3538 3983 -1752 3984 0
1814 3614 3984 -3985 0
3614 -3984 -1814 -3985 0
-3614 3984 -1814 -3985 0
1814 -3614 -3984 -3985 0
3985 -3614 -3984 -1814 0
1814 -3614 3984 3985 0
1814 3614 -3984 3985 0
3614 3984 -1814 3985 0
1876 3968 3985 -3986 0
-3968 3985 -1876 -3986 0
3968 -3985 -1876 -3986 0
1876 -3968 -3985 -3986 0
-3968 -3985 -1876 3986 0
1876 3968 -3985 3986 0
1876 -3968 3985 3986 0
3968 3985 -1876 3986 0
1938 3505 3986 -3987 0
-3505 3986 -1938 -3987 0
3505 -3986 -1938 -3987 0
1938 -3505 -3986 -3987 0
-3505 -3986 -1938 3987 0
1938 3505 -3986 3987 0
1938 -3505 3986 3987 0
3505 3986 -1938 3987 0
4 50 112 -3988 0
4 -50 -112 -3988 0
50 -4 -112 -3988 0
112 -4 -50 -3988 0
-4 -50 -112 3988 0
50 112 -4 3988 0
4 112 -50 3988 0
4 50 -112 3988 0
174 239 3988 -3989 0
3988 -174 -239 -3989 0
174 -3988 -239 -3989 0
239 -3988 -174 -3989 0
3989 -3988 -174 -239 0
174 239 -3988 3989 0
239 3988 -174 3989 0
174 3988 -239 3989 0
298 360 3989 -3990 0
3989 -298 -360 -3990 0
298 -3989 -360 -3990 0
360 -3989 -298 -3990 0
3990 -3989 -298 -360 0
298 360 -3989 3990 0
360 3989 -298 3990 0
298 3989 -360 3990 0
425 484 3990 -3991 0
3990 -425 -484 -3991 0
425 -3990 -484 -3991 0
484 -3990 -425 -3991 0
3991 -3990 -425 -484 0
425 484 -3990 3991 0
484 3990 -425 3991 0
425 3990 -484 3991 0
546 611 3991 -3992 0
3991 -546 -611 -3992 0
546 -3991 -611 -3992 0
611 -3991 -546 -3992 0
3992 -3991 -546 -611 0
546 611 -3991 3992 0
611 3991 -546 3992 0
546 3991 -611 3992 0
670 732 3992 -3993 0
3992 -670 -732 -3993 0
670 -3992 -732 -3993 0
732 -3992 -670 -3993 0
3993 -3992 -670 -732 0
670 732 -3992 3993 0
732 3992 -670 3993 0
670 3992 -732 3993 0
797 856 3993 -3994 0
3993 -797 -856 -3994 0
797 -3993 -856 -3994 0
856 -3993 -797 -3994 0
3994 -3993 -797 -856 0
797 856 -3993 3994 0
856 3993 -797 3994 0
797 3993 -856 3994 0
883 3826 3994 -3995 0
-3826 3994 -883 -3995 0
3826 -3994 -883 -3995 0
883 -3826 -3994 -3995 0
-3826 -3994 -883 3995 0
883 3826 -3994 3995 0
883 -3826 3994 3995 0
3826 3994 -883 3995 0
945 3804 3995 -3996 0
-3804 3995 -945 -3996 0
3804 -3995 -945 -3996 0
945 -3804 -3995 -3996 0
-3804 -3995 -945 3996 0
945 3804 -3995 3996 0
945 -3804 3995 3996 0
3804 3995 -945 3996 0
1045 1110 3996 -3997 0
3996 -1045 -1110 -3997 0
1045 -3996 -1110 -3997 0
1110 -3996 -1045 -3997 0
3997 -3996 -1045 -1110 0
1045 1110 -3996 3997 0
1110 3996 -1045 3997 0
1045 3996 -1110 3997 0
1169 1231 3997 -3998 0
3997 -1169 -1231 -3998 0
1169 -3997 -1231 -3998 0
1231 -3997 -1169 -3998 0
3998 -3997 -1169 -1231 0
1169 1231 -3997 3998 0
1231 3997 -1169 3998 0
1169 3997 -1231 3998 0
1296 1355 3998 -3999 0
3998 -1296 -1355 -3999 0
1296 -3998 -1355 -3999 0
1355 -3998 -1296 -3999 0
3999 -3998 -1296 -1355 0
1296 1355 -3998 3999 0
1355 3998 -1296 3999 0
1296 3998 -1355 3999 0
1417 1479 3999 -4000 0
3999 -1417 -1479 -4000 0
1417 -3999 -1479 -4000 0
1479 -3999 -1417 -4000 0
4000 -3999 -1417 -1479 0
1417 1479 -3999 4000 0
1479 3999 -1417 4000 0
1417 3999 -1479 4000 0
1541 1603 4000 -4001 0
4000 -1541 -1603 -4001 0
1541 -4000 -1603 -4001 0
1603 -4000 -1541 -4001 0
4001 -4000 -1541 -1603 0
1541 1603 -4000 4001 0
1603 4000 -1541 4001 0
1541 4000 -1603 4001 0
1665 1730 4001 -4002 0
4001 -1665 -1730 -4002 0
1665 -4001 -1730 -4002 0
1730 -4001 -1665 -4002 0
4002 -4001 -1665 -1730 0
1665 1730 -4001 4002 0
1730 4001 -1665 4002 0
1665 4001 -1730 4002 0
1789 1851 4002 -4003 0
4002 -1789 -1851 -4003 0
1789 -4002 -1851 -4003 0
1851 -4002 -1789 -4003 0
4003 -4002 -1789 -1851 0
1789 1851 -4002 4003 0
1851 4002 -1789 4003 0
1789 4002 -1851 4003 0
1916 1975 4003 -4004 0
4003 -1916 -1975 -4004 0
1916 -4003 -1975 -4004 0
1975 -4003 -1916 -4004 0
4004 -4003 -1916 -1975 0
1916 1975 -4003 4004 0
1975 4003 -1916 4004 0
1916 4003 -1975 4004 0
7 58 120 -4005 0
7 -58 -120 -4005 0
58 -7 -120 -4005 0
120 -7 -58 -4005 0
-7 -58 -120 4005 0
58 120 -7 4005 0
7 120 -58 4005 0
7 58 -120 4005 0
182 247 4005 -4006 0
4005 -182 -247 -4006 0
182 -4005 -247 -4006 0
247 -4005 -182 -4006 0
4006 -4005 -182 -247 0
182 247 -4005 4006 0
247 4005 -182 4006 0
182 4005 -247 4006 0
306 368 4006 -4007 0
4006 -306 -368 -4007 0
306 -4006 -368 -4007 0
368 -4006 -306 -4007 0
4007 -4006 -306 -368 0
306 368 -4006 4007 0
368 4006 -306 4007 0
306 4006 -368 4007 0
433 492 4007 -4008 0
4007 -433 -492 -4008 0
433 -4007 -492 -4008 0
492 -4007 -433 -4008 0
4008 -4007 -433 -492 0
433 492 -4007 4008 0
492 4007 -433 4008 0
433 4007 -492 4008 0
554 619 4008 -4009 0
4008 -554 -619 -4009 0
554 -4008 -619 -4009 0
619 -4008 -554 -4009 0
4009 -4008 -554 -619 0
554 619 -4008 4009 0
619 4008 -554 4009 0
554 4008 -619 4009 0
678 740 4009 -4010 0
4009 -678 -740 -4010 0
678 -4009 -740 -4010 0
740 -4009 -678 -4010 0
4010 -4009 -678 -740 0
678 740 -4009 4010 0
740 4009 -678 4010 0
678 4009 -740 4010 0
805 864 4010 -4011 0
4010 -805 -864 -4011 0
805 -4010 -864 -4011 0
864 -4010 -805 -4011 0
4011 -4010 -805 -864 0
805 864 -4010 4011 0
864 4010 -805 4011 0
805 4010 -864 4011 0
926 988 4011 -4012 0
4011 -926 -988 -4012 0
926 -4011 -988 -4012 0
988 -4011 -926 -4012 0
4012 -4011 -926 -988 0
926 988 -4011 4012 0
988 4011 -926 4012 0
926 4011 -988 4012 0
1050 1115 4012 -4013 0
4012 -1050 -1115 -4013 0
1050 -4012 -1115 -4013 0
1115 -4012 -1050 -4013 0
4013 -4012 -1050 -1115 0
1050 1115 -4012 4013 0
1115 4012 -1050 4013 0
1050 4012 -1115 4013 0
1174 1236 4013 -4014 0
4013 -1174 -1236 -4014 0
1174 -4013 -1236 -4014 0
1236 -4013 -1174 -4014 0
4014 -4013 -1174 -1236 0
1174 1236 -4013 4014 0
1236 4013 -1174 4014 0
1174 4013 -1236 4014 0
1301 1360 4014 -4015 0
4014 -1301 -1360 -4015 0
1301 -4014 -1360 -4015 0
1360 -4014 -1301 -4015 0
4015 -4014 -1301 -1360 0
1301 1360 -4014 4015 0
1360 4014 -1301 4015 0
1301 4014 -1360 4015 0
1422 1484 4015 -4016 0
4015 -1422 -1484 -4016 0
1422 -4015 -1484 -4016 0
1484 -4015 -1422 -4016 0
4016 -4015 -1422 -1484 0
1422 1484 -4015 4016 0
1484 4015 -1422 4016 0
1422 4015 -1484 4016 0
1504 3643 4016 -4017 0
-3643 4016 -1504 -4017 0
3643 -4016 -1504 -4017 0
1504 -3643 -4016 -4017 0
-3643 -4016 -1504 4017 0
1504 3643 -4016 4017 0
1504 -3643 4016 4017 0
3643 4016 -1504 4017 0
1566 3680 4017 -4018 0
3680 -4017 -1566 -4018 0
-3680 4017 -1566 -4018 0
1566 -3680 -4017 -4018 0
4018 -3680 -4017 -1566 0
1566 -3680 4017 4018 0
1566 3680 -4017 4018 0
3680 4017 -1566 4018 0
1673 1738 4018 -4019 0
4018 -1673 -1738 -4019 0
1673 -4018 -1738 -4019 0
1738 -4018 -1673 -4019 0
4019 -4018 -1673 -1738 0
1673 1738 -4018 4019 0
1738 4018 -1673 4019 0
1673 4018 -1738 4019 0
1797 1859 4019 -4020 0
4019 -1797 -1859 -4020 0
1797 -4019 -1859 -4020 0
1859 -4019 -1797 -4020 0
4020 -4019 -1797 -1859 0
1797 1859 -4019 4020 0
1859 4019 -1797 4020 0
1797 4019 -1859 4020 0
1924 1983 4020 -4021 0
4020 -1924 -1983 -4021 0
1924 -4020 -1983 -4021 0
1983 -4020 -1924 -4021 0
4021 -4020 -1924 -1983 0
1924 1983 -4020 4021 0
1983 4020 -1924 4021 0
1924 4020 -1983 4021 0
6 55 117 -4022 0
6 -55 -117 -4022 0
55 -6 -117 -4022 0
117 -6 -55 -4022 0
-6 -55 -117 4022 0
55 117 -6 4022 0
6 117 -55 4022 0
6 55 -117 4022 0
179 244 4022 -4023 0
4022 -179 -244 -4023 0
179 -4022 -244 -4023 0
244 -4022 -179 -4023 0
4023 -4022 -179 -244 0
179 244 -4022 4023 0
244 4022 -179 4023 0
179 4022 -244 4023 0
303 365 4023 -4024 0
4023 -303 -365 -4024 0
303 -4023 -365 -4024 0
365 -4023 -303 -4024 0
4024 -4023 -303 -365 0
303 365 -4023 4024 0
365 4023 -303 4024 0
303 4023 -365 4024 0
430 489 4024 -4025 0
4024 -430 -489 -4025 0
430 -4024 -489 -4025 0
489 -4024 -430 -4025 0
4025 -4024 -430 -489 0
430 489 -4024 4025 0
489 4024 -430 4025 0
430 4024 -489 4025 0
551 616 4025 -4026 0
4025 -551 -616 -4026 0
551 -4025 -616 -4026 0
616 -4025 -551 -4026 0
4026 -4025 -551 -616 0
551 616 -4025 4026 0
616 4025 -551 4026 0
551 4025 -616 4026 0
675 737 4026 -4027 0
4026 -675 -737 -4027 0
675 -4026 -737 -4027 0
737 -4026 -675 -4027 0
4027 -4026 -675 -737 0
675 737 -4026 4027 0
737 4026 -675 4027 0
675 4026 -737 4027 0
802 861 4027 -4028 0
4027 -802 -861 -4028 0
802 -4027 -861 -4028 0
861 -4027 -802 -4028 0
4028 -4027 -802 -861 0
802 861 -4027 4028 0
861 4027 -802 4028 0
802 4027 -861 4028 0
923 985 4028 -4029 0
4028 -923 -985 -4029 0
923 -4028 -985 -4029 0
985 -4028 -923 -4029 0
4029 -4028 -923 -985 0
923 985 -4028 4029 0
985 4028 -923 4029 0
923 4028 -985 4029 0
1047 1112 4029 -4030 0
4029 -1047 -1112 -4030 0
1047 -4029 -1112 -4030 0
1112 -4029 -1047 -4030 0
4030 -4029 -1047 -1112 0
1047 1112 -4029 4030 0
1112 4029 -1047 4030 0
1047 4029 -1112 4030 0
1171 1233 4030 -4031 0
4030 -1171 -1233 -4031 0
1171 -4030 -1233 -4031 0
1233 -4030 -1171 -4031 0
4031 -4030 -1171 -1233 0
1171 1233 -4030 4031 0
1233 4030 -1171 4031 0
1171 4030 -1233 4031 0
1298 1357 4031 -4032 0
4031 -1298 -1357 -4032 0
1298 -4031 -1357 -4032 0
1357 -4031 -1298 -4032 0
4032 -4031 -1298 -1357 0
1298 1357 -4031 4032 0
1357 4031 -1298 4032 0
1298 4031 -1357 4032 0
1380 3708 4032 -4033 0
-3708 4032 -1380 -4033 0
3708 -4032 -1380 -4033 0
1380 -3708 -4032 -4033 0
-3708 -4032 -1380 4033 0
1380 3708 -4032 4033 0
1380 -3708 4032 4033 0
3708 4032 -1380 4033 0
1442 3535 4033 -4034 0
3535 -4033 -1442 -4034 0
-3535 4033 -1442 -4034 0
1442 -3535 -4033 -4034 0
4034 -3535 -4033 -1442 0
1442 -3535 4033 4034 0
1442 3535 -4033 4034 0
3535 4033 -1442 4034 0
1546 1608 4034 -4035 0
4034 -1546 -1608 -4035 0
1546 -4034 -1608 -4035 0
1608 -4034 -1546 -4035 0
4035 -4034 -1546 -1608 0
1546 1608 -4034 4035 0
1608 4034 -1546 4035 0
1546 4034 -1608 4035 0
1670 1735 4035 -4036 0
4035 -1670 -1735 -4036 0
1670 -4035 -1735 -4036 0
1735 -4035 -1670 -4036 0
4036 -4035 -1670 -1735 0
1670 1735 -4035 4036 0
1735 4035 -1670 4036 0
1670 4035 -1735 4036 0
1794 1856 4036 -4037 0
4036 -1794 -1856 -4037 0
1794 -4036 -1856 -4037 0
1856 -4036 -1794 -4037 0
4037 -4036 -1794 -1856 0
1794 1856 -4036 4037 0
1856 4036 -1794 4037 0
1794 4036 -1856 4037 0
1921 1980 4037 -4038 0
4037 -1921 -1980 -4038 0
1921 -4037 -1980 -4038 0
1980 -4037 -1921 -4038 0
4038 -4037 -1921 -1980 0
1921 1980 -4037 4038 0
1980 4037 -1921 4038 0
1921 4037 -1980 4038 0
9 -64 -4039 0
64 -9 -4039 0
-9 -64 4039 0
9 64 4039 0
126 188 4039 -4040 0
4039 -126 -188 -4040 0
126 -4039 -188 -4040 0
188 -4039 -126 -4040 0
4040 -4039 -126 -188 0
126 188 -4039 4040 0
188 4039 -126 4040 0
126 4039 -188 4040 0
253 312 4040 -4041 0
4040 -253 -312 -4041 0
253 -4040 -312 -4041 0
312 -4040 -253 -4041 0
4041 -4040 -253 -312 0
253 312 -4040 4041 0
312 4040 -253 4041 0
253 4040 -312 4041 0
374 439 4041 -4042 0
4041 -374 -439 -4042 0
374 -4041 -439 -4042 0
439 -4041 -374 -4042 0
4042 -4041 -374 -439 0
374 439 -4041 4042 0
439 4041 -374 4042 0
374 4041 -439 4042 0
498 560 4042 -4043 0
4042 -498 -560 -4043 0
498 -4042 -560 -4043 0
560 -4042 -498 -4043 0
4043 -4042 -498 -560 0
498 560 -4042 4043 0
560 4042 -498 4043 0
498 4042 -560 4043 0
625 684 4043 -4044 0
4043 -625 -684 -4044 0
625 -4043 -684 -4044 0
684 -4043 -625 -4044 0
-4043 -625 -684 4044 0
625 684 -4043 4044 0
684 4043 -625 4044 0
625 4043 -684 4044 0
746 811 4044 -4045 0
4044 -746 -811 -4045 0
746 -4044 -811 -4045 0
811 -4044 -746 -4045 0
4045 -4044 -746 -811 0
746 811 -4044 4045 0
811 4044 -746 4045 0
746 4044 -811 4045 0
870 932 4045 -4046 0
4045 -870 -932 -4046 0
870 -4045 -932 -4046 0
932 -4045 -870 -4046 0
4046 -4045 -870 -932 0
870 932 -4045 4046 0
932 4045 -870 4046 0
870 4045 -932 4046 0
994 1056 4046 -4047 0
4046 -994 -1056 -4047 0
994 -4046 -1056 -4047 0
1056 -4046 -994 -4047 0
4047 -4046 -994 -1056 0
994 1056 -4046 4047 0
1056 4046 -994 4047 0
994 4046 -1056 4047 0
4047 -1068 -4048 0
1068 -4047 -4048 0
4048 -4047 -1068 0
1068 4047 4048 0
1180 1242 4048 -4049 0
4048 -1180 -1242 -4049 0
1180 -4048 -1242 -4049 0
1242 -4048 -1180 -4049 0
4049 -4048 -1180 -1242 0
1180 1242 -4048 4049 0
1242 4048 -1180 4049 0
1180 4048 -1242 4049 0
5 52 114 -4050 0
5 -52 -114 -4050 0
52 -5 -114 -4050 0
114 -5 -52 -4050 0
-5 -52 -114 4050 0
52 114 -5 4050 0
5 114 -52 4050 0
5 52 -114 4050 0
176 241 4050 -4051 0
4050 -176 -241 -4051 0
176 -4050 -241 -4051 0
241 -4050 -176 -4051 0
4051 -4050 -176 -241 0
176 241 -4050 4051 0
241 4050 -176 4051 0
176 4050 -241 4051 0
300 362 4051 -4052 0
4051 -300 -362 -4052 0
300 -4051 -362 -4052 0
362 -4051 -300 -4052 0
4052 -4051 -300 -362 0
300 362 -4051 4052 0
362 4051 -300 4052 0
300 4051 -362 4052 0
427 486 4052 -4053 0
4052 -427 -486 -4053 0
427 -4052 -486 -4053 0
486 -4052 -427 -4053 0
4053 -4052 -427 -486 0
427 486 -4052 4053 0
486 4052 -427 4053 0
427 4052 -486 4053 0
548 613 4053 -4054 0
4053 -548 -613 -4054 0
548 -4053 -613 -4054 0
613 -4053 -548 -4054 0
4054 -4053 -548 -613 0
548 613 -4053 4054 0
613 4053 -548 4054 0
548 4053 -613 4054 0
672 734 4054 -4055 0
4054 -672 -734 -4055 0
672 -4054 -734 -4055 0
734 -4054 -672 -4055 0
4055 -4054 -672 -734 0
672 734 -4054 4055 0
734 4054 -672 4055 0
672 4054 -734 4055 0
799 858 4055 -4056 0
4055 -799 -858 -4056 0
799 -4055 -858 -4056 0
858 -4055 -799 -4056 0
4056 -4055 -799 -858 0
799 858 -4055 4056 0
858 4055 -799 4056 0
799 4055 -858 4056 0
920 982 4056 -4057 0
4056 -920 -982 -4057 0
920 -4056 -982 -4057 0
982 -4056 -920 -4057 0
4057 -4056 -920 -982 0
920 982 -4056 4057 0
982 4056 -920 4057 0
920 4056 -982 4057 0
1008 3768 4057 -4058 0
-3768 4057 -1008 -4058 0
3768 -4057 -1008 -4058 0
1008 -3768 -4057 -4058 0
-3768 -4057 -1008 4058 0
1008 3768 -4057 4058 0
1008 -3768 4057 4058 0
3768 4057 -1008 4058 0
1070 4047 4058 -4059 0
4047 -4058 -1070 -4059 0
-4047 4058 -1070 -4059 0
1070 -4047 -4058 -4059 0
4059 -4047 -4058 -1070 0
1070 -4047 4058 4059 0
1070 4047 -4058 4059 0
4047 4058 -1070 4059 0
1132 3745 4059 -4060 0
-3745 4059 -1132 -4060 0
3745 -4059 -1132 -4060 0
1132 -3745 -4059 -4060 0
-3745 -4059 -1132 4060 0
1132 3745 -4059 4060 0
1132 -3745 4059 4060 0
3745 4059 -1132 4060 0
1194 3640 4060 -4061 0
-3640 4060 -1194 -4061 0
3640 -4060 -1194 -4061 0
1194 -3640 -4060 -4061 0
-3640 -4060 -1194 4061 0
1194 3640 -4060 4061 0
1194 -3640 4060 4061 0
3640 4060 -1194 4061 0
1256 4049 4061 -4062 0
-4049 4061 -1256 -4062 0
4049 -4061 -1256 -4062 0
1256 -4049 -4061 -4062 0
-4049 -4061 -1256 4062 0
1256 4049 -4061 4062 0
1256 -4049 4061 4062 0
4049 4061 -1256 4062 0
1318 3566 4062 -4063 0
-3566 4062 -1318 -4063 0
3566 -4062 -1318 -4063 0
1318 -3566 -4062 -4063 0
-3566 -4062 -1318 4063 0
1318 3566 -4062 4063 0
1318 -3566 4062 4063 0
3566 4062 -1318 4063 0
1419 1481 4063 -4064 0
4063 -1419 -1481 -4064 0
1419 -4063 -1481 -4064 0
1481 -4063 -1419 -4064 0
4064 -4063 -1419 -1481 0
1419 1481 -4063 4064 0
1481 4063 -1419 4064 0
1419 4063 -1481 4064 0
1543 1605 4064 -4065 0
4064 -1543 -1605 -4065 0
1543 -4064 -1605 -4065 0
1605 -4064 -1543 -4065 0
4065 -4064 -1543 -1605 0
1543 1605 -4064 4065 0
1605 4064 -1543 4065 0
1543 4064 -1605 4065 0
1667 1732 4065 -4066 0
4065 -1667 -1732 -4066 0
1667 -4065 -1732 -4066 0
1732 -4065 -1667 -4066 0
4066 -4065 -1667 -1732 0
1667 1732 -4065 4066 0
1732 4065 -1667 4066 0
1667 4065 -1732 4066 0
1791 1853 4066 -4067 0
4066 -1791 -1853 -4067 0
1791 -4066 -1853 -4067 0
1853 -4066 -1791 -4067 0
4067 -4066 -1791 -1853 0
1791 1853 -4066 4067 0
1853 4066 -1791 4067 0
1791 4066 -1853 4067 0
1918 1977 4067 -4068 0
4067 -1918 -1977 -4068 0
1918 -4067 -1977 -4068 0
1977 -4067 -1918 -4068 0
4068 -4067 -1918 -1977 0
1918 1977 -4067 4068 0
1977 4067 -1918 4068 0
1918 4067 -1977 4068 0
12 -74 -4069 0
74 -12 -4069 0
-12 -74 4069 0
12 74 4069 0
136 198 4069 -4070 0
4069 -136 -198 -4070 0
136 -4069 -198 -4070 0
198 -4069 -136 -4070 0
4070 -4069 -136 -198 0
136 198 -4069 4070 0
198 4069 -136 4070 0
136 4069 -198 4070 0
260 322 4070 -4071 0
4070 -260 -322 -4071 0
260 -4070 -322 -4071 0
322 -4070 -260 -4071 0
4071 -4070 -260 -322 0
260 322 -4070 4071 0
322 4070 -260 4071 0
260 4070 -322 4071 0
384 446 4071 -4072 0
4071 -384 -446 -4072 0
384 -4071 -446 -4072 0
446 -4071 -384 -4072 0
4072 -4071 -384 -446 0
384 446 -4071 4072 0
446 4071 -384 4072 0
384 4071 -446 4072 0
508 570 4072 -4073 0
4072 -508 -570 -4073 0
508 -4072 -570 -4073 0
570 -4072 -508 -4073 0
4073 -4072 -508 -570 0
508 570 -4072 4073 0
570 4072 -508 4073 0
508 4072 -570 4073 0
4073 -575 -4074 0
575 -4073 -4074 0
4074 -4073 -575 0
575 4073 4074 0
694 756 4074 -4075 0
4074 -694 -756 -4075 0
694 -4074 -756 -4075 0
756 -4074 -694 -4075 0
4075 -4074 -694 -756 0
694 756 -4074 4075 0
756 4074 -694 4075 0
694 4074 -756 4075 0
3 47 109 -4076 0
3 -47 -109 -4076 0
47 -3 -109 -4076 0
109 -3 -47 -4076 0
-3 -47 -109 4076 0
47 109 -3 4076 0
3 109 -47 4076 0
3 47 -109 4076 0
171 236 4076 -4077 0
4076 -171 -236 -4077 0
171 -4076 -236 -4077 0
236 -4076 -171 -4077 0
4077 -4076 -171 -236 0
171 236 -4076 4077 0
236 4076 -171 4077 0
171 4076 -236 4077 0
295 357 4077 -4078 0
4077 -295 -357 -4078 0
295 -4077 -357 -4078 0
357 -4077 -295 -4078 0
4078 -4077 -295 -357 0
295 357 -4077 4078 0
357 4077 -295 4078 0
295 4077 -357 4078 0
422 481 4078 -4079 0
4078 -422 -481 -4079 0
422 -4078 -481 -4079 0
481 -4078 -422 -4079 0
4079 -4078 -422 -481 0
422 481 -4078 4079 0
481 4078 -422 4079 0
422 4078 -481 4079 0
511 3893 4079 -4080 0
-3893 4079 -511 -4080 0
3893 -4079 -511 -4080 0
511 -3893 -4079 -4080 0
-3893 -4079 -511 4080 0
511 3893 -4079 4080 0
511 -3893 4079 4080 0
3893 4079 -511 4080 0
573 4073 4080 -4081 0
4073 -4080 -573 -4081 0
-4073 4080 -573 -4081 0
573 -4073 -4080 -4081 0
4081 -4073 -4080 -573 0
573 -4073 4080 4081 0
573 4073 -4080 4081 0
4073 4080 -573 4081 0
635 3380 4081 -4082 0
-3380 4081 -635 -4082 0
3380 -4081 -635 -4082 0
635 -3380 -4081 -4082 0
-3380 -4081 -635 4082 0
635 3380 -4081 4082 0
635 -3380 4081 4082 0
3380 4081 -635 4082 0
697 3872 4082 -4083 0
-3872 4082 -697 -4083 0
3872 -4082 -697 -4083 0
697 -3872 -4082 -4083 0
-3872 -4082 -697 4083 0
697 3872 -4082 4083 0
697 -3872 4082 4083 0
3872 4082 -697 4083 0
759 4075 4083 -4084 0
-4075 4083 -759 -4084 0
4075 -4083 -759 -4084 0
759 -4075 -4083 -4084 0
-4075 -4083 -759 4084 0
759 4075 -4083 4084 0
759 -4075 4083 4084 0
4075 4083 -759 4084 0
821 3825 4084 -4085 0
-3825 4084 -821 -4085 0
3825 -4084 -821 -4085 0
821 -3825 -4084 -4085 0
-3825 -4084 -821 4085 0
821 3825 -4084 4085 0
821 -3825 4084 4085 0
3825 4084 -821 4085 0
918 980 4085 -4086 0
4085 -918 -980 -4086 0
918 -4085 -980 -4086 0
980 -4085 -918 -4086 0
4086 -4085 -918 -980 0
918 980 -4085 4086 0
980 4085 -918 4086 0
918 4085 -980 4086 0
1042 1107 4086 -4087 0
4086 -1042 -1107 -4087 0
1042 -4086 -1107 -4087 0
1107 -4086 -1042 -4087 0
4087 -4086 -1042 -1107 0
1042 1107 -4086 4087 0
1107 4086 -1042 4087 0
1042 4086 -1107 4087 0
1166 1228 4087 -4088 0
4087 -1166 -1228 -4088 0
1166 -4087 -1228 -4088 0
1228 -4087 -1166 -4088 0
4088 -4087 -1166 -1228 0
1166 1228 -4087 4088 0
1228 4087 -1166 4088 0
1166 4087 -1228 4088 0
1293 1352 4088 -4089 0
4088 -1293 -1352 -4089 0
1293 -4088 -1352 -4089 0
1352 -4088 -1293 -4089 0
4089 -4088 -1293 -1352 0
1293 1352 -4088 4089 0
1352 4088 -1293 4089 0
1293 4088 -1352 4089 0
1414 1476 4089 -4090 0
4089 -1414 -1476 -4090 0
1414 -4089 -1476 -4090 0
1476 -4089 -1414 -4090 0
4090 -4089 -1414 -1476 0
1414 1476 -4089 4090 0
1476 4089 -1414 4090 0
1414 4089 -1476 4090 0
1538 1600 4090 -4091 0
4090 -1538 -1600 -4091 0
1538 -4090 -1600 -4091 0
1600 -4090 -1538 -4091 0
4091 -4090 -1538 -1600 0
1538 1600 -4090 4091 0
1600 4090 -1538 4091 0
1538 4090 -1600 4091 0
1662 1727 4091 -4092 0
4091 -1662 -1727 -4092 0
1662 -4091 -1727 -4092 0
1727 -4091 -1662 -4092 0
4092 -4091 -1662 -1727 0
1662 1727 -4091 4092 0
1727 4091 -1662 4092 0
1662 4091 -1727 4092 0
1786 1848 4092 -4093 0
4092 -1786 -1848 -4093 0
1786 -4092 -1848 -4093 0
1848 -4092 -1786 -4093 0
4093 -4092 -1786 -1848 0
1786 1848 -4092 4093 0
1848 4092 -1786 4093 0
1786 4092 -1848 4093 0
1913 1972 4093 -4094 0
4093 -1913 -1972 -4094 0
1913 -4093 -1972 -4094 0
1972 -4093 -1913 -4094 0
4094 -4093 -1913 -1972 0
1913 1972 -4093 4094 0
1972 4093 -1913 4094 0
1913 4093 -1972 4094 0
11 -71 -4095 0
71 -11 -4095 0
-11 -71 4095 0
11 71 4095 0
133 195 4095 -4096 0
4095 -133 -195 -4096 0
133 -4095 -195 -4096 0
195 -4095 -133 -4096 0
4096 -4095 -133 -195 0
133 195 -4095 4096 0
195 4095 -133 4096 0
133 4095 -195 4096 0
4096 -203 -4097 0
203 -4096 -4097 0
4097 -4096 -203 0
203 4096 4097 0
319 381 4097 -4098 0
4097 -319 -381 -4098 0
319 -4097 -381 -4098 0
381 -4097 -319 -4098 0
4098 -4097 -319 -381 0
319 381 -4097 4098 0
381 4097 -319 4098 0
319 4097 -381 4098 0
2 44 106 -4099 0
2 -44 -106 -4099 0
44 -2 -106 -4099 0
106 -2 -44 -4099 0
-2 -44 -106 4099 0
44 106 -2 4099 0
2 106 -44 4099 0
2 44 -106 4099 0
139 3424 4099 -4100 0
-3424 4099 -139 -4100 0
3424 -4099 -139 -4100 0
139 -3424 -4099 -4100 0
-3424 -4099 -139 4100 0
139 3424 -4099 4100 0
139 -3424 4099 4100 0
3424 4099 -139 4100 0
201 4096 4100 -4101 0
4096 -4100 -201 -4101 0
-4096 4100 -201 -4101 0
201 -4096 -4100 -4101 0
4101 -4096 -4100 -201 0
201 -4096 4100 4101 0
201 4096 -4100 4101 0
4096 4100 -201 4101 0
263 3396 4101 -4102 0
-3396 4101 -263 -4102 0
3396 -4101 -263 -4102 0
263 -3396 -4101 -4102 0
-3396 -4101 -263 4102 0
263 3396 -4101 4102 0
263 -3396 4101 4102 0
3396 4101 -263 4102 0
325 3377 4102 -4103 0
-3377 4102 -325 -4103 0
3377 -4102 -325 -4103 0
325 -3377 -4102 -4103 0
-3377 -4102 -325 4103 0
325 3377 -4102 4103 0
325 -3377 4102 4103 0
3377 4102 -325 4103 0
387 4098 4103 -4104 0
-4098 4103 -387 -4104 0
4098 -4103 -387 -4104 0
387 -4098 -4103 -4104 0
-4098 -4103 -387 4104 0
387 4098 -4103 4104 0
387 -4098 4103 4104 0
4098 4103 -387 4104 0
449 3449 4104 -4105 0
-3449 4104 -449 -4105 0
3449 -4104 -449 -4105 0
449 -3449 -4104 -4105 0
-3449 -4104 -449 4105 0
449 3449 -4104 4105 0
449 -3449 4104 4105 0
3449 4104 -449 4105 0
543 608 4105 -4106 0
4105 -543 -608 -4106 0
543 -4105 -608 -4106 0
608 -4105 -543 -4106 0
4106 -4105 -543 -608 0
543 608 -4105 4106 0
608 4105 -543 4106 0
543 4105 -608 4106 0
667 729 4106 -4107 0
4106 -667 -729 -4107 0
667 -4106 -729 -4107 0
729 -4106 -667 -4107 0
4107 -4106 -667 -729 0
667 729 -4106 4107 0
729 4106 -667 4107 0
667 4106 -729 4107 0
794 853 4107 -4108 0
4107 -794 -853 -4108 0
794 -4107 -853 -4108 0
853 -4107 -794 -4108 0
4108 -4107 -794 -853 0
794 853 -4107 4108 0
853 4107 -794 4108 0
794 4107 -853 4108 0
915 977 4108 -4109 0
4108 -915 -977 -4109 0
915 -4108 -977 -4109 0
977 -4108 -915 -4109 0
4109 -4108 -915 -977 0
915 977 -4108 4109 0
977 4108 -915 4109 0
915 4108 -977 4109 0
1039 1104 4109 -4110 0
4109 -1039 -1104 -4110 0
1039 -4109 -1104 -4110 0
1104 -4109 -1039 -4110 0
4110 -4109 -1039 -1104 0
1039 1104 -4109 4110 0
1104 4109 -1039 4110 0
1039 4109 -1104 4110 0
1163 1225 4110 -4111 0
4110 -1163 -1225 -4111 0
1163 -4110 -1225 -4111 0
1225 -4110 -1163 -4111 0
4111 -4110 -1163 -1225 0
1163 1225 -4110 4111 0
1225 4110 -1163 4111 0
1163 4110 -1225 4111 0
1290 1349 4111 -4112 0
4111 -1290 -1349 -4112 0
1290 -4111 -1349 -4112 0
1349 -4111 -1290 -4112 0
4112 -4111 -1290 -1349 0
1290 1349 -4111 4112 0
1349 4111 -1290 4112 0
1290 4111 -1349 4112 0
1411 1473 4112 -4113 0
4112 -1411 -1473 -4113 0
1411 -4112 -1473 -4113 0
1473 -4112 -1411 -4113 0
4113 -4112 -1411 -1473 0
1411 1473 -4112 4113 0
1473 4112 -1411 4113 0
1411 4112 -1473 4113 0
1535 1597 4113 -4114 0
4113 -1535 -1597 -4114 0
1535 -4113 -1597 -4114 0
1597 -4113 -1535 -4114 0
4114 -4113 -1535 -1597 0
1535 1597 -4113 4114 0
1597 4113 -1535 4114 0
1535 4113 -1597 4114 0
1659 1724 4114 -4115 0
4114 -1659 -1724 -4115 0
1659 -4114 -1724 -4115 0
1724 -4114 -1659 -4115 0
4115 -4114 -1659 -1724 0
1659 1724 -4114 4115 0
1724 4114 -1659 4115 0
1659 4114 -1724 4115 0
1783 1845 4115 -4116 0
4115 -1783 -1845 -4116 0
1783 -4115 -1845 -4116 0
1845 -4115 -1783 -4116 0
4116 -4115 -1783 -1845 0
1783 1845 -4115 4116 0
1845 4115 -1783 4116 0
1783 4115 -1845 4116 0
1910 1969 4116 -4117 0
4116 -1910 -1969 -4117 0
1910 -4116 -1969 -4117 0
1969 -4116 -1910 -4117 0
4117 -4116 -1910 -1969 0
1910 1969 -4116 4117 0
1969 4116 -1910 4117 0
1910 4116 -1969 4117 0
1 -15 -4118 0
15 -1 -4118 0
-1 -15 4118 0
1 15 4118 0
20 77 4118 -4119 0
-20 4118 -77 -4119 0
20 -4118 -77 -4119 0
77 -20 -4118 -4119 0
4119 -4118 -20 -77 0
20 77 -4118 4119 0
77 -20 4118 4119 0
20 4118 -77 4119 0
168 233 4119 -4120 0
4119 -168 -233 -4120 0
168 -4119 -233 -4120 0
233 -4119 -168 -4120 0
4120 -4119 -168 -233 0
168 233 -4119 4120 0
233 4119 -168 4120 0
168 4119 -233 4120 0
292 354 4120 -4121 0
4120 -292 -354 -4121 0
292 -4120 -354 -4121 0
354 -4120 -292 -4121 0
4121 -4120 -292 -354 0
292 354 -4120 4121 0
354 4120 -292 4121 0
292 4120 -354 4121 0
419 478 4121 -4122 0
4121 -419 -478 -4122 0
419 -4121 -478 -4122 0
478 -4121 -419 -4122 0
4122 -4121 -419 -478 0
419 478 -4121 4122 0
478 4121 -419 4122 0
419 4121 -478 4122 0
540 605 4122 -4123 0
4122 -540 -605 -4123 0
540 -4122 -605 -4123 0
605 -4122 -540 -4123 0
4123 -4122 -540 -605 0
540 605 -4122 4123 0
605 4122 -540 4123 0
540 4122 -605 4123 0
664 726 4123 -4124 0
4123 -664 -726 -4124 0
664 -4123 -726 -4124 0
726 -4123 -664 -4124 0
4124 -4123 -664 -726 0
664 726 -4123 4124 0
726 4123 -664 4124 0
664 4123 -726 4124 0
791 850 4124 -4125 0
4124 -791 -850 -4125 0
791 -4124 -850 -4125 0
850 -4124 -791 -4125 0
4125 -4124 -791 -850 0
791 850 -4124 4125 0
850 4124 -791 4125 0
791 4124 -850 4125 0
912 974 4125 -4126 0
4125 -912 -974 -4126 0
912 -4125 -974 -4126 0
974 -4125 -912 -4126 0
4126 -4125 -912 -974 0
912 974 -4125 4126 0
974 4125 -912 4126 0
912 4125 -974 4126 0
1036 1101 4126 -4127 0
4126 -1036 -1101 -4127 0
1036 -4126 -1101 -4127 0
1101 -4126 -1036 -4127 0
4127 -4126 -1036 -1101 0
1036 1101 -4126 4127 0
1101 4126 -1036 4127 0
1036 4126 -1101 4127 0
1160 1222 4127 -4128 0
4127 -1160 -1222 -4128 0
1160 -4127 -1222 -4128 0
1222 -4127 -1160 -4128 0
4128 -4127 -1160 -1222 0
1160 1222 -4127 4128 0
1222 4127 -1160 4128 0
1160 4127 -1222 4128 0
1287 1346 4128 -4129 0
4128 -1287 -1346 -4129 0
1287 -4128 -1346 -4129 0
1346 -4128 -1287 -4129 0
4129 -4128 -1287 -1346 0
1287 1346 -4128 4129 0
1346 4128 -1287 4129 0
1287 4128 -1346 4129 0
1408 1470 4129 -4130 0
4129 -1408 -1470 -4130 0
1408 -4129 -1470 -4130 0
1470 -4129 -1408 -4130 0
4130 -4129 -1408 -1470 0
1408 1470 -4129 4130 0
1470 4129 -1408 4130 0
1408 4129 -1470 4130 0
1532 1594 4130 -4131 0
4130 -1532 -1594 -4131 0
1532 -4130 -1594 -4131 0
1594 -4130 -1532 -4131 0
4131 -4130 -1532 -1594 0
1532 1594 -4130 4131 0
1594 4130 -1532 4131 0
1532 4130 -1594 4131 0
1656 1721 4131 -4132 0
4131 -1656 -1721 -4132 0
1656 -4131 -1721 -4132 0
1721 -4131 -1656 -4132 0
4132 -4131 -1656 -1721 0
1656 1721 -4131 4132 0
1721 4131 -1656 4132 0
1656 4131 -1721 4132 0
1780 1842 4132 -4133 0
4132 -1780 -1842 -4133 0
1780 -4132 -1842 -4133 0
1842 -4132 -1780 -4133 0
4133 -4132 -1780 -1842 0
1780 1842 -4132 4133 0
1842 4132 -1780 4133 0
1780 4132 -1842 4133 0
1907 1966 4133 -4134 0
4133 -1907 -1966 -4134 0
1907 -4133 -1966 -4134 0
1966 -4133 -1907 -4134 0
4134 -4133 -1907 -1966 0
1907 1966 -4133 4134 0
1966 4133 -1907 4134 0
1907 4133 -1966 4134 0
3374 4135 0
-3345 4135 0
-3311 4135 0
-3289 4135 0
4134 4135 0
4117 4135 0
4094 4135 0
-4068 4135 0
-4038 4135 0
-4021 4135 0
4004 4135 0
3987 4135 0
3952 4135 0
-3923 4135 0
3854 4135 0
-3796 4135 0
-3735 4135 0
-3697 4135 0
-3630 4135 0
3475 4135 0
3289 3311 3345 -3374 -3475 3630 3697 3735 3796 -3854 3923 -3952 -3987 -4004 4021 4038 4068 -4094 -4117 -4134 -4135 0
-3374 4136 0
-3345 4136 0
-3311 4136 0
3289 4136 0
4134 4136 0
4117 4136 0
4094 4136 0
4068 4136 0
-4038 4136 0
4021 4136 0
4004 4136 0
-3987 4136 0
3952 4136 0
3923 4136 0
3854 4136 0
-3796 4136 0
-3735 4136 0
3697 4136 0
3630 4136 0
3475 4136 0
-3289 3311 3345 3374 -3475 -3630 -3697 3735 3796 -3854 -3923 -3952 3987 -4004 -4021 4038 -4068 -4094 -4117 -4134 -4136 0
3374 4137 0
-3345 4137 0
-3311 4137 0
-3289 4137 0
4134 4137 0
4117 4137 0
4094 4137 0
-4068 4137 0
-4038 4137 0
-4021 4137 0
4004 4137 0
3987 4137 0
3952 4137 0
-3923 4137 0
3854 4137 0
-3735 4137 0
-3697 4137 0
-3630 4137 0
3796 4137 0
3475 4137 0
3289 3311 3345 -3374 -3475 3630 3697 3735 -3796 -3854 3923 -3952 -3987 -4004 4021 4038 4068 -4094 -4117 -4134 -4137 0
-3374 4138 0
-3345 4138 0
3311 4138 0
-3289 4138 0
4134 4138 0
-4117 4138 0
4094 4138 0
-4068 4138 0
-4021 4138 0
4004 4138 0
3987 4138 0
3952 4138 0
-3923 4138 0
3854 4138 0
-3697 4138 0
-3630 4138 0
3796 4138 0
4038 4138 0
3735 4138 0
3475 4138 0
3289 -3311 3345 3374 -3475 3630 3697 -3735 -3796 -3854 3923 -3952 -3987 -4004 4021 -4038 4068 -4094 4117 -4134 -4138 0
-3374 4139 0
-3345 4139 0
-3311 4139 0
3289 4139 0
4134 4139 0
4117 4139 0
-4094 4139 0
4068 4139 0
-4038 4139 0
4021 4139 0
4004 4139 0
-3987 4139 0
3952 4139 0
-3475 4139 0
3923 4139 0
3854 4139 0
-3796 4139 0
-3735 4139 0
3697 4139 0
3630 4139 0
-3289 3311 3345 3374 3475 -3630 -3697 3735 3796 -3854 -3923 -3952 3987 -4004 -4021 4038 -4068 4094 -4117 -4134 -4139 0
-3374 4140 0
-3345 4140 0
-3311 4140 0
3289 4140 0
4134 4140 0
4117 4140 0
-4094 4140 0
4068 4140 0
-4038 4140 0
-4021 4140 0
4004 4140 0
-3987 4140 0
3952 4140 0
-3475 4140 0
3923 4140 0
3854 4140 0
-3796 4140 0
-3735 4140 0
-3697 4140 0
3630 4140 0
-3289 3311 3345 3374 3475 -3630 3697 3735 3796 -3854 -3923 -3952 3987 -4004 4021 4038 -4068 4094 -4117 -4134 -4140 0
-3374 4141 0
-3345 4141 0
-3311 4141 0
3289 4141 0
4134 4141 0
4117 4141 0
4094 4141 0
4068 4141 0
-4038 4141 0
-4021 4141 0
4004 4141 0
-3987 4141 0
3952 4141 0
-3475 4141 0
3923 4141 0
3854 4141 0
-3796 4141 0
-3735 4141 0
-3697 4141 0
3630 4141 0
-3289 3311 3345 3374 3475 -3630 3697 3735 3796 -3854 -3923 -3952 3987 -4004 4021 4038 -4068 -4094 -4117 -4134 -4141 0
-3374 4142 0
-3345 4142 0
-3311 4142 0
3289 4142 0
4134 4142 0
4117 4142 0
4094 4142 0
4068 4142 0
-4038 4142 0
4021 4142 0
4004 4142 0
-3987 4142 0
3952 4142 0
-3475 4142 0
3923 4142 0
3854 4142 0
-3796 4142 0
-3735 4142 0
3697 4142 0
3630 4142 0
-3289 3311 3345 3374 3475 -3630 -3697 3735 3796 -3854 -3923 -3952 3987 -4004 -4021 4038 -4068 -4094 -4117 -4134 -4142 0
-3374 4143 0
-3345 4143 0
-3311 4143 0
3289 4143 0
4134 4143 0
4117 4143 0
-4094 4143 0
4068 4143 0
-4038 4143 0
4021 4143 0
4004 4143 0
-3987 4143 0
3952 4143 0
3923 4143 0
3854 4143 0
-3796 4143 0
-3735 4143 0
3697 4143 0
3630 4143 0
3475 4143 0
-3289 3311 3345 3374 -3475 -3630 -3697 3735 3796 -3854 -3923 -3952 3987 -4004 -4021 4038 -4068 4094 -4117 -4134 -4143 0
3175 3225 3474 -4144 0
3474 -3175 -3225 -4144 0
3175 -3474 -3225 -4144 0
3225 -3474 -3175 -4144 0
4144 -3474 -3175 -3225 0
3175 3225 -3474 4144 0
3225 3474 -3175 4144 0
3175 3474 -3225 4144 0
3186 3236 3734 -4145 0
3734 -3186 -3236 -4145 0
3186 -3734 -3236 -4145 0
3236 -3734 -3186 -4145 0
4145 -3734 -3186 -3236 0
3186 3236 -3734 4145 0
3236 3734 -3186 4145 0
3186 3734 -3236 4145 0
1921 1980 4037 -4146 0
4037 -1921 -1980 -4146 0
1921 -4037 -1980 -4146 0
1980 -4037 -1921 -4146 0
4146 -4037 -1921 -1980 0
1921 1980 -4037 4146 0
1980 4037 -1921 4146 0
1921 4037 -1980 4146 0
3183 3233 3795 -4147 0
3795 -3183 -3233 -4147 0
3183 -3795 -3233 -4147 0
3233 -3795 -3183 -4147 0
4147 -3795 -3183 -3233 0
3183 3233 -3795 4147 0
3233 3795 -3183 4147 0
3183 3795 -3233 4147 0
3194 3518 3629 -4148 0
-3518 3629 -3194 -4148 0
3518 -3629 -3194 -4148 0
3194 -3518 -3629 -4148 0
-3518 -3629 -3194 4148 0
3194 3518 -3629 4148 0
3194 -3518 3629 4148 0
3518 3629 -3194 4148 0
3189 3239 3696 -4149 0
3696 -3189 -3239 -4149 0
3189 -3696 -3239 -4149 0
3239 -3696 -3189 -4149 0
4149 -3696 -3189 -3239 0
3189 3239 -3696 4149 0
3239 3696 -3189 4149 0
3189 3696 -3239 4149 0
3181 3231 3853 -4150 0
3853 -3181 -3231 -4150 0
3181 -3853 -3231 -4150 0
3231 -3853 -3181 -4150 0
4150 -3853 -3181 -3231 0
3181 3231 -3853 4150 0
3231 3853 -3181 4150 0
3181 3853 -3231 4150 0
3178 3228 3922 -4151 0
3922 -3178 -3228 -4151 0
3178 -3922 -3228 -4151 0
3228 -3922 -3178 -4151 0
4151 -3922 -3178 -3228 0
3178 3228 -3922 4151 0
3228 3922 -3178 4151 0
3178 3922 -3228 4151 0
3172 3222 3951 -4152 0
3951 -3172 -3222 -4152 0
3172 -3951 -3222 -4152 0
3222 -3951 -3172 -4152 0
4152 -3951 -3172 -3222 0
3172 3222 -3951 4152 0
3222 3951 -3172 4152 0
3172 3951 -3222 4152 0
1938 3505 3986 -4153 0
-3505 3986 -1938 -4153 0
3505 -3986 -1938 -4153 0
1938 -3505 -3986 -4153 0
-3505 -3986 -1938 4153 0
1938 3505 -3986 4153 0
1938 -3505 3986 4153 0
3505 3986 -1938 4153 0
1916 1975 4003 -4154 0
4003 -1916 -1975 -4154 0
1916 -4003 -1975 -4154 0
1975 -4003 -1916 -4154 0
4154 -4003 -1916 -1975 0
1916 1975 -4003 4154 0
1975 4003 -1916 4154 0
1916 4003 -1975 4154 0
1924 1983 4020 -4155 0
4020 -1924 -1983 -4155 0
1924 -4020 -1983 -4155 0
1983 -4020 -1924 -4155 0
4155 -4020 -1924 -1983 0
1924 1983 -4020 4155 0
1983 4020 -1924 4155 0
1924 4020 -1983 4155 0
1918 1977 4067 -4156 0
4067 -1918 -1977 -4156 0
1918 -4067 -1977 -4156 0
1977 -4067 -1918 -4156 0
4156 -4067 -1918 -1977 0
1918 1977 -4067 4156 0
1977 4067 -1918 4156 0
1918 4067 -1977 4156 0
1913 1972 4093 -4157 0
4093 -1913 -1972 -4157 0
1913 -4093 -1972 -4157 0
1972 -4093 -1913 -4157 0
4157 -4093 -1913 -1972 0
1913 1972 -4093 4157 0
1972 4093 -1913 4157 0
1913 4093 -1972 4157 0
1910 1969 4116 -4158 0
4116 -1910 -1969 -4158 0
1910 -4116 -1969 -4158 0
1969 -4116 -1910 -4158 0
4158 -4116 -1910 -1969 0
1910 1969 -4116 4158 0
1969 4116 -1910 4158 0
1910 4116 -1969 4158 0
1907 1966 4133 -4159 0
4133 -1907 -1966 -4159 0
1907 -4133 -1966 -4159 0
1966 -4133 -1907 -4159 0
4159 -4133 -1907 -1966 0
1907 1966 -4133 4159 0
1966 4133 -1907 4159 0
1907 4133 -1966 4159 0
3289 -3311 3345 3374 -4144 -4145 -4146 -4147 4148 4149 -4150 4151 -4152 -4153 -4154 4155 4156 -4157 -4158 -4159 4160 0
4143 4160 0
4142 4160 0
4141 4160 0
4140 4160 0
4139 4160 0
4138 4160 0
4137 4160 0
4136 4160 0
4135 4160 0
-3374 -4135 -4136 -4137 -4138 -4139 -4140 -4141 -4142 -4143 -4160 0
-3345 -4135 -4136 -4137 -4138 -4139 -4140 -4141 -4142 -4143 -4160 0
3311 -4135 -4136 -4137 -4138 -4139 -4140 -4141 -4142 -4143 -4160 0
-3289 -4135 -4136 -4137 -4138 -4139 -4140 -4141 -4142 -4143 -4160 0
-4135 -4136 -4137 -4138 -4139 -4140 -4141 -4142 -4143 4159 -4160 0
-4135 -4136 -4137 -4138 -4139 -4140 -4141 -4142 -4143 4158 -4160 0
-4135 -4136 -4137 -4138 -4139 -4140 -4141 -4142 -4143 4157 -4160 0
-4135 -4136 -4137 -4138 -4139 -4140 -4141 -4142 -4143 -4156 -4160 0
-4135 -4136 -4137 -4138 -4139 -4140 -4141 -4142 -4143 -4155 -4160 0
-4135 -4136 -4137 -4138 -4139 -4140 -4141 -4142 -4143 4154 -4160 0
-4135 -4136 -4137 -4138 -4139 -4140 -4141 -4142 -4143 4153 -4160 0
-4135 -4136 -4137 -4138 -4139 -4140 -4141 -4142 -4143 4152 -4160 0
-4135 -4136 -4137 -4138 -4139 -4140 -4141 -4142 -4143 -4151 -4160 0
-4135 -4136 -4137 -4138 -4139 -4140 -4141 -4142 -4143 4150 -4160 0
-4135 -4136 -4137 -4138 -4139 -4140 -4141 -4142 -4143 -4149 -4160 0
-4135 -4136 -4137 -4138 -4139 -4140 -4141 -4142 -4143 -4148 -4160 0
-4135 -4136 -4137 -4138 -4139 -4140 -4141 -4142 -4143 4147 -4160 0
-4135 -4136 -4137 -4138 -4139 -4140 -4141 -4142 -4143 4146 -4160 0
-4135 -4136 -4137 -4138 -4139 -4140 -4141 -4142 -4143 4145 -4160 0
-4135 -4136 -4137 -4138 -4139 -4140 -4141 -4142 -4143 4144 -4160 0
2087 -2137 -4161 0
2137 -2087 -4161 0
4161 -2087 -2137 0
4161 2087 2137 0
2187 2237 4161 -4162 0
4161 -2187 -2237 -4162 0
2187 -4161 -2237 -4162 0
2237 -4161 -2187 -4162 0
4162 -4161 -2187 -2237 0
2187 2237 -4161 4162 0
2237 4161 -2187 4162 0
2187 4161 -2237 4162 0
2287 2337 4162 -4163 0
4162 -2287 -2337 -4163 0
2287 -4162 -2337 -4163 0
2337 -4162 -2287 -4163 0
4163 -4162 -2287 -2337 0
2287 2337 -4162 4163 0
2337 4162 -2287 4163 0
2287 4162 -2337 4163 0
2387 2437 4163 -4164 0
4163 -2387 -2437 -4164 0
2387 -4163 -2437 -4164 0
2437 -4163 -2387 -4164 0
4164 -4163 -2387 -2437 0
2387 2437 -4163 4164 0
2437 4163 -2387 4164 0
2387 4163 -2437 4164 0
2487 2537 4164 -4165 0
4164 -2487 -2537 -4165 0
2487 -4164 -2537 -4165 0
2537 -4164 -2487 -4165 0
4165 -4164 -2487 -2537 0
2487 2537 -4164 4165 0
2537 4164 -2487 4165 0
2487 4164 -2537 4165 0
2587 2637 4165 -4166 0
4165 -2587 -2637 -4166 0
2587 -4165 -2637 -4166 0
2637 -4165 -2587 -4166 0
4166 -4165 -2587 -2637 0
2587 2637 -4165 4166 0
2637 4165 -2587 4166 0
2587 4165 -2637 4166 0
2687 2737 4166 -4167 0
4166 -2687 -2737 -4167 0
2687 -4166 -2737 -4167 0
2737 -4166 -2687 -4167 0
4167 -4166 -2687 -2737 0
2687 2737 -4166 4167 0
2737 4166 -2687 4167 0
2687 4166 -2737 4167 0
2787 2837 4167 -4168 0
4167 -2787 -2837 -4168 0
2787 -4167 -2837 -4168 0
2837 -4167 -2787 -4168 0
4168 -4167 -2787 -2837 0
2787 2837 -4167 4168 0
2837 4167 -2787 4168 0
2787 4167 -2837 4168 0
2887 2937 4168 -4169 0
4168 -2887 -2937 -4169 0
2887 -4168 -2937 -4169 0
2937 -4168 -2887 -4169 0
4169 -4168 -2887 -2937 0
2887 2937 -4168 4169 0
2937 4168 -2887 4169 0
2887 4168 -2937 4169 0
4169 -2945 -4170 0
2945 -4169 -4170 0
4170 -4169 -2945 0
2945 4169 4170 0
2445 2516 3887 -4171 0
3887 -2445 -2516 -4171 0
2445 -3887 -2516 -4171 0
2516 -3887 -2445 -4171 0
4171 -3887 -2445 -2516 0
2445 2516 -3887 4171 0
2516 3887 -2445 4171 0
2445 3887 -2516 4171 0
2566 2616 4171 -4172 0
4171 -2566 -2616 -4172 0
2566 -4171 -2616 -4172 0
2616 -4171 -2566 -4172 0
4172 -4171 -2566 -2616 0
2566 2616 -4171 4172 0
2616 4171 -2566 4172 0
2566 4171 -2616 4172 0
2663 2713 4172 -4173 0
4172 -2663 -2713 -4173 0
2663 -4172 -2713 -4173 0
2713 -4172 -2663 -4173 0
4173 -4172 -2663 -2713 0
2663 2713 -4172 4173 0
2713 4172 -2663 4173 0
2663 4172 -2713 4173 0
2763 2813 4173 -4174 0
4173 -2763 -2813 -4174 0
2763 -4173 -2813 -4174 0
2813 -4173 -2763 -4174 0
4174 -4173 -2763 -2813 0
2763 2813 -4173 4174 0
2813 4173 -2763 4174 0
2763 4173 -2813 4174 0
2863 2913 4174 -4175 0
4174 -2863 -2913 -4175 0
2863 -4174 -2913 -4175 0
2913 -4174 -2863 -4175 0
4175 -4174 -2863 -2913 0
2863 2913 -4174 4175 0
2913 4174 -2863 4175 0
2863 4174 -2913 4175 0
2963 4170 4175 -4176 0
-4170 4175 -2963 -4176 0
2963 -4170 -4175 -4176 0
4170 -4175 -2963 -4176 0
-4170 -4175 -2963 4176 0
2963 4170 -4175 4176 0
4170 4175 -2963 4176 0
2963 -4170 4175 4176 0
2993 3063 4176 -4177 0
4176 -2993 -3063 -4177 0
2993 -4176 -3063 -4177 0
3063 -4176 -2993 -4177 0
4177 -4176 -2993 -3063 0
2993 3063 -4176 4177 0
3063 4176 -2993 4177 0
2993 4176 -3063 4177 0
3113 3166 4177 -4178 0
4177 -3113 -3166 -4178 0
3113 -4177 -3166 -4178 0
3166 -4177 -3113 -4178 0
4178 -4177 -3113 -3166 0
3113 3166 -4177 4178 0
3166 4177 -3113 4178 0
3113 4177 -3166 4178 0
3216 4160 4178 -4179 0
-4160 4178 -3216 -4179 0
3216 -4160 -4178 -4179 0
4160 -4178 -3216 -4179 0
-4160 -4178 -3216 4179 0
3216 4160 -4178 4179 0
4160 4178 -3216 4179 0
3216 -4160 4178 4179 0
-3374 4180 0
-3345 4180 0
3311 4180 0
-3289 4180 0
4159 4180 0
4158 4180 0
-4157 4180 0
-4156 4180 0
-4155 4180 0
4154 4180 0
4153 4180 0
4152 4180 0
4151 4180 0
4150 4180 0
-4149 4180 0
-4148 4180 0
4147 4180 0
4146 4180 0
4145 4180 0
4144 4180 0
3289 -3311 3345 3374 -4144 -4145 -4146 -4147 4148 4149 -4150 -4151 -4152 -4153 -4154 4155 4156 4157 -4158 -4159 -4180 0
-3374 4181 0
-3345 4181 0
3311 4181 0
-3289 4181 0
4159 4181 0
-4158 4181 0
-4157 4181 0
-4156 4181 0
-4155 4181 0
4154 4181 0
4153 4181 0
4152 4181 0
4151 4181 0
4150 4181 0
-4149 4181 0
-4148 4181 0
4147 4181 0
4146 4181 0
4145 4181 0
4144 4181 0
3289 -3311 3345 3374 -4144 -4145 -4146 -4147 4148 4149 -4150 -4151 -4152 -4153 -4154 4155 4156 4157 4158 -4159 -4181 0
3374 4182 0
-3345 4182 0
-3311 4182 0
-3289 4182 0
4159 4182 0
4158 4182 0
4157 4182 0
-4156 4182 0
-4146 4182 0
-4155 4182 0
4154 4182 0
4153 4182 0
4152 4182 0
4151 4182 0
4150 4182 0
-4147 4182 0
-4145 4182 0
-4149 4182 0
-4148 4182 0
4144 4182 0
3289 3311 3345 -3374 -4144 4145 4146 4147 4148 4149 -4150 -4151 -4152 -4153 -4154 4155 4156 -4157 -4158 -4159 -4182 0
3374 4183 0
-3345 4183 0
-3311 4183 0
-3289 4183 0
4159 4183 0
4158 4183 0
4157 4183 0
4156 4183 0
-4146 4183 0
-4155 4183 0
4154 4183 0
4153 4183 0
4152 4183 0
4151 4183 0
4150 4183 0
-4147 4183 0
-4145 4183 0
-4149 4183 0
-4148 4183 0
4144 4183 0
3289 3311 3345 -3374 -4144 4145 4146 4147 4148 4149 -4150 -4151 -4152 -4153 -4154 4155 -4156 -4157 -4158 -4159 -4183 0
-3374 4184 0
-3345 4184 0
3311 4184 0
-3289 4184 0
4159 4184 0
-4158 4184 0
-4157 4184 0
4156 4184 0
-4155 4184 0
4154 4184 0
-4153 4184 0
4152 4184 0
4151 4184 0
4150 4184 0
-4147 4184 0
-4149 4184 0
4148 4184 0
4146 4184 0
4145 4184 0
4144 4184 0
3289 -3311 3345 3374 -4144 -4145 -4146 4147 -4148 4149 -4150 -4151 -4152 4153 -4154 4155 -4156 4157 4158 -4159 -4184 0
-3374 4185 0
-3345 4185 0
3311 4185 0
-3289 4185 0
4159 4185 0
4158 4185 0
-4157 4185 0
4156 4185 0
-4155 4185 0
4154 4185 0
-4153 4185 0
4152 4185 0
4151 4185 0
4150 4185 0
-4147 4185 0
-4149 4185 0
4148 4185 0
4146 4185 0
4145 4185 0
4144 4185 0
3289 -3311 3345 3374 -4144 -4145 -4146 4147 -4148 4149 -4150 -4151 -4152 4153 -4154 4155 -4156 4157 -4158 -4159 -4185 0
3374 4186 0
-3345 4186 0
-3311 4186 0
-3289 4186 0
4159 4186 0
4158 4186 0
4157 4186 0
-4156 4186 0
-4146 4186 0
4155 4186 0
4154 4186 0
4153 4186 0
4152 4186 0
4151 4186 0
4150 4186 0
-4145 4186 0
4149 4186 0
-4148 4186 0
4147 4186 0
4144 4186 0
3289 3311 3345 -3374 -4144 4145 4146 -4147 4148 -4149 -4150 -4151 -4152 -4153 -4154 -4155 4156 -4157 -4158 -4159 -4186 0
3374 4187 0
-3345 4187 0
-3311 4187 0
-3289 4187 0
4159 4187 0
4158 4187 0
4157 4187 0
4156 4187 0
-4146 4187 0
4155 4187 0
4154 4187 0
4153 4187 0
4152 4187 0
4151 4187 0
4150 4187 0
-4145 4187 0
4149 4187 0
-4148 4187 0
4147 4187 0
4144 4187 0
3289 3311 3345 -3374 -4144 4145 4146 -4147 4148 -4149 -4150 -4151 -4152 -4153 -4154 -4155 -4156 -4157 -4158 -4159 -4187 0
3374 4188 0
-3345 4188 0
-3311 4188 0
-3289 4188 0
4159 4188 0
4158 4188 0
4157 4188 0
4156 4188 0
-4146 4188 0
-4155 4188 0
4154 4188 0
4153 4188 0
4152 4188 0
-4151 4188 0
4150 4188 0
-4147 4188 0
-4145 4188 0
-4149 4188 0
-4148 4188 0
4144 4188 0
3289 3311 3345 -3374 -4144 4145 4146 4147 4148 4149 -4150 4151 -4152 -4153 -4154 4155 -4156 -4157 -4158 -4159 -4188 0
3374 4189 0
-3345 4189 0
-3311 4189 0
-3289 4189 0
4159 4189 0
4158 4189 0
4157 4189 0
-4156 4189 0
-4146 4189 0
-4155 4189 0
4154 4189 0
4153 4189 0
-4152 4189 0
-4144 4189 0
-4151 4189 0
4150 4189 0
-4145 4189 0
-4149 4189 0
-4148 4189 0
4147 4189 0
3289 3311 3345 -3374 4144 4145 4146 -4147 4148 4149 -4150 4151 4152 -4153 -4154 4155 4156 -4157 -4158 -4159 -4189 0
-3374 4190 0
-3345 4190 0
-3311 4190 0
3289 4190 0
4159 4190 0
4158 4190 0
-4157 4190 0
-4156 4190 0
-4146 4190 0
4155 4190 0
4154 4190 0
4153 4190 0
4152 4190 0
4151 4190 0
4150 4190 0
-4145 4190 0
4149 4190 0
-4148 4190 0
4147 4190 0
4144 4190 0
-3289 3311 3345 3374 -4144 4145 4146 -4147 4148 -4149 -4150 -4151 -4152 -4153 -4154 -4155 4156 4157 -4158 -4159 -4190 0
3374 4191 0
-3345 4191 0
-3311 4191 0
-3289 4191 0
4159 4191 0
4158 4191 0
4157 4191 0
-4156 4191 0
-4146 4191 0
-4155 4191 0
4154 4191 0
4153 4191 0
-4152 4191 0
-4144 4191 0
-4151 4191 0
4150 4191 0
-4147 4191 0
-4145 4191 0
-4149 4191 0
-4148 4191 0
3289 3311 3345 -3374 4144 4145 4146 4147 4148 4149 -4150 4151 4152 -4153 -4154 4155 4156 -4157 -4158 -4159 -4191 0
3374 4192 0
-3345 4192 0
-3311 4192 0
-3289 4192 0
4159 4192 0
4158 4192 0
4157 4192 0
4156 4192 0
-4146 4192 0
4155 4192 0
4154 4192 0
4153 4192 0
4152 4192 0
-4151 4192 0
4150 4192 0
-4145 4192 0
4149 4192 0
-4148 4192 0
4147 4192 0
4144 4192 0
3289 3311 3345 -3374 -4144 4145 4146 -4147 4148 -4149 -4150 4151 -4152 -4153 -4154 -4155 -4156 -4157 -4158 -4159 -4192 0
3374 4193 0
-3345 4193 0
-3311 4193 0
-3289 4193 0
4159 4193 0
4158 4193 0
4157 4193 0
-4156 4193 0
-4146 4193 0
4155 4193 0
4154 4193 0
4153 4193 0
4152 4193 0
-4151 4193 0
4150 4193 0
-4145 4193 0
4149 4193 0
-4148 4193 0
4147 4193 0
4144 4193 0
3289 3311 3345 -3374 -4144 4145 4146 -4147 4148 -4149 -4150 4151 -4152 -4153 -4154 -4155 4156 -4157 -4158 -4159 -4193 0
3374 4194 0
-3345 4194 0
-3311 4194 0
-3289 4194 0
4159 4194 0
4158 4194 0
4157 4194 0
4156 4194 0
-4146 4194 0
-4155 4194 0
4154 4194 0
4153 4194 0
-4152 4194 0
-4144 4194 0
-4151 4194 0
4150 4194 0
-4147 4194 0
-4145 4194 0
-4149 4194 0
-4148 4194 0
3289 3311 3345 -3374 4144 4145 4146 4147 4148 4149 -4150 4151 4152 -4153 -4154 4155 -4156 -4157 -4158 -4159 -4194 0
-3374 4195 0
-3345 4195 0
-3311 4195 0
3289 4195 0
4159 4195 0
4158 4195 0
4157 4195 0
-4156 4195 0
-4146 4195 0
4155 4195 0
4154 4195 0
4153 4195 0
4152 4195 0
4151 4195 0
4150 4195 0
-4145 4195 0
4149 4195 0
-4148 4195 0
4147 4195 0
4144 4195 0
-3289 3311 3345 3374 -4144 4145 4146 -4147 4148 -4149 -4150 -4151 -4152 -4153 -4154 -4155 4156 -4157 -4158 -4159 -4195 0
3374 4196 0
-3345 4196 0
-3311 4196 0
-3289 4196 0
4159 4196 0
4158 4196 0
4157 4196 0
4156 4196 0
-4146 4196 0
-4155 4196 0
4154 4196 0
4153 4196 0
4152 4196 0
-4151 4196 0
4150 4196 0
-4145 4196 0
-4149 4196 0
-4148 4196 0
4147 4196 0
4144 4196 0
3289 3311 3345 -3374 -4144 4145 4146 -4147 4148 4149 -4150 4151 -4152 -4153 -4154 4155 -4156 -4157 -4158 -4159 -4196 0
4196 4197 0
3289 3311 3345 -3374 4144 4145 4146 -4147 4148 4149 -4150 4151 4152 -4153 -4154 4155 -4156 -4157 -4158 -4159 4197 0
4195 4197 0
4194 4197 0
4193 4197 0
4192 4197 0
4191 4197 0
4190 4197 0
4189 4197 0
4188 4197 0
4187 4197 0
4186 4197 0
4185 4197 0
4184 4197 0
4183 4197 0
4182 4197 0
4181 4197 0
4180 4197 0
3374 -4180 -4181 -4182 -4183 -4184 -4185 -4186 -4187 -4188 -4189 -4190 -4191 -4192 -4193 -4194 -4195 -4196 -4197 0
-3345 -4180 -4181 -4182 -4183 -4184 -4185 -4186 -4187 -4188 -4189 -4190 -4191 -4192 -4193 -4194 -4195 -4196 -4197 0
-3311 -4180 -4181 -4182 -4183 -4184 -4185 -4186 -4187 -4188 -4189 -4190 -4191 -4192 -4193 -4194 -4195 -4196 -4197 0
-3289 -4180 -4181 -4182 -4183 -4184 -4185 -4186 -4187 -4188 -4189 -4190 -4191 -4192 -4193 -4194 -4195 -4196 -4197 0
4159 -4180 -4181 -4182 -4183 -4184 -4185 -4186 -4187 -4188 -4189 -4190 -4191 -4192 -4193 -4194 -4195 -4196 -4197 0
4158 -4180 -4181 -4182 -4183 -4184 -4185 -4186 -4187 -4188 -4189 -4190 -4191 -4192 -4193 -4194 -4195 -4196 -4197 0
4157 -4180 -4181 -4182 -4183 -4184 -4185 -4186 -4187 -4188 -4189 -4190 -4191 -4192 -4193 -4194 -4195 -4196 -4197 0
4156 -4180 -4181 -4182 -4183 -4184 -4185 -4186 -4187 -4188 -4189 -4190 -4191 -4192 -4193 -4194 -4195 -4196 -4197 0
-4146 -4180 -4181 -4182 -4183 -4184 -4185 -4186 -4187 -4188 -4189 -4190 -4191 -4192 -4193 -4194 -4195 -4196 -4197 0
-4155 -4180 -4181 -4182 -4183 -4184 -4185 -4186 -4187 -4188 -4189 -4190 -4191 -4192 -4193 -4194 -4195 -4196 -4197 0
4154 -4180 -4181 -4182 -4183 -4184 -4185 -4186 -4187 -4188 -4189 -4190 -4191 -4192 -4193 -4194 -4195 -4196 -4197 0
4153 -4180 -4181 -4182 -4183 -4184 -4185 -4186 -4187 -4188 -4189 -4190 -4191 -4192 -4193 -4194 -4195 -4196 -4197 0
-4152 -4180 -4181 -4182 -4183 -4184 -4185 -4186 -4187 -4188 -4189 -4190 -4191 -4192 -4193 -4194 -4195 -4196 -4197 0
-4144 -4180 -4181 -4182 -4183 -4184 -4185 -4186 -4187 -4188 -4189 -4190 -4191 -4192 -4193 -4194 -4195 -4196 -4197 0
-4151 -4180 -4181 -4182 -4183 -4184 -4185 -4186 -4187 -4188 -4189 -4190 -4191 -4192 -4193 -4194 -4195 -4196 -4197 0
4150 -4180 -4181 -4182 -4183 -4184 -4185 -4186 -4187 -4188 -4189 -4190 -4191 -4192 -4193 -4194 -4195 -4196 -4197 0
-4145 -4180 -4181 -4182 -4183 -4184 -4185 -4186 -4187 -4188 -4189 -4190 -4191 -4192 -4193 -4194 -4195 -4196 -4197 0
-4149 -4180 -4181 -4182 -4183 -4184 -4185 -4186 -4187 -4188 -4189 -4190 -4191 -4192 -4193 -4194 -4195 -4196 -4197 0
-4148 -4180 -4181 -4182 -4183 -4184 -4185 -4186 -4187 -4188 -4189 -4190 -4191 -4192 -4193 -4194 -4195 -4196 -4197 0
4147 -4180 -4181 -4182 -4183 -4184 -4185 -4186 -4187 -4188 -4189 -4190 -4191 -4192 -4193 -4194 -4195 -4196 -4197 0
2081 -2131 -4198 0
2131 -2081 -4198 0
4198 -2081 -2131 0
4198 2081 2131 0
2181 2231 4198 -4199 0
4198 -2181 -2231 -4199 0
2181 -4198 -2231 -4199 0
2231 -4198 -2181 -4199 0
4199 -4198 -2181 -2231 0
2181 2231 -4198 4199 0
2231 4198 -2181 4199 0
2181 4198 -2231 4199 0
2281 2331 4199 -4200 0
4199 -2281 -2331 -4200 0
2281 -4199 -2331 -4200 0
2331 -4199 -2281 -4200 0
4200 -4199 -2281 -2331 0
2281 2331 -4199 4200 0
2331 4199 -2281 4200 0
2281 4199 -2331 4200 0
2381 2431 4200 -4201 0
4200 -2381 -2431 -4201 0
2381 -4200 -2431 -4201 0
2431 -4200 -2381 -4201 0
4201 -4200 -2381 -2431 0
2381 2431 -4200 4201 0
2431 4200 -2381 4201 0
2381 4200 -2431 4201 0
2481 2531 4201 -4202 0
4201 -2481 -2531 -4202 0
2481 -4201 -2531 -4202 0
2531 -4201 -2481 -4202 0
4202 -4201 -2481 -2531 0
2481 2531 -4201 4202 0
2531 4201 -2481 4202 0
2481 4201 -2531 4202 0
2581 2631 4202 -4203 0
4202 -2581 -2631 -4203 0
2581 -4202 -2631 -4203 0
2631 -4202 -2581 -4203 0
4203 -4202 -2581 -2631 0
2581 2631 -4202 4203 0
2631 4202 -2581 4203 0
2581 4202 -2631 4203 0
4203 -2645 -4204 0
2645 -4203 -4204 0
4204 -4203 -2645 0
2645 4203 4204 0
4204 -2695 -4205 0
2695 -4204 -4205 0
4205 -4204 -2695 0
2695 4204 4205 0
4205 -2745 -4206 0
2745 -4205 -4206 0
4206 -4205 -2745 0
2745 4205 4206 0
2395 2460 3889 -4207 0
3889 -2395 -2460 -4207 0
2395 -3889 -2460 -4207 0
2460 -3889 -2395 -4207 0
4207 -3889 -2395 -2460 0
2395 2460 -3889 4207 0
2460 3889 -2395 4207 0
2395 3889 -2460 4207 0
2510 2560 4207 -4208 0
4207 -2510 -2560 -4208 0
2510 -4207 -2560 -4208 0
2560 -4207 -2510 -4208 0
-4207 -2510 -2560 4208 0
2510 2560 -4207 4208 0
2560 4207 -2510 4208 0
2510 4207 -2560 4208 0
2610 2657 4208 -4209 0
4208 -2610 -2657 -4209 0
2610 -4208 -2657 -4209 0
2657 -4208 -2610 -4209 0
4209 -4208 -2610 -2657 0
2610 2657 -4208 4209 0
2657 4208 -2610 4209 0
2610 4208 -2657 4209 0
2707 2757 4209 -4210 0
4209 -2707 -2757 -4210 0
2707 -4209 -2757 -4210 0
2757 -4209 -2707 -4210 0
4210 -4209 -2707 -2757 0
2707 2757 -4209 4210 0
2757 4209 -2707 4210 0
2707 4209 -2757 4210 0
2793 4206 4210 -4211 0
-4206 4210 -2793 -4211 0
4206 -4210 -2793 -4211 0
2793 -4206 -4210 -4211 0
-4206 -4210 -2793 4211 0
2793 4206 -4210 4211 0
2793 -4206 4210 4211 0
4206 4210 -2793 4211 0
2857 2910 4211 -4212 0
4211 -2857 -2910 -4212 0
2857 -4211 -2910 -4212 0
2910 -4211 -2857 -4212 0
4212 -4211 -2857 -2910 0
2857 2910 -4211 4212 0
2910 4211 -2857 4212 0
2857 4211 -2910 4212 0
2957 3010 4212 -4213 0
4212 -2957 -3010 -4213 0
2957 -4212 -3010 -4213 0
3010 -4212 -2957 -4213 0
4213 -4212 -2957 -3010 0
2957 3010 -4212 4213 0
3010 4212 -2957 4213 0
2957 4212 -3010 4213 0
2090 -2140 -4214 0
2140 -2090 -4214 0
4214 -2090 -2140 0
4214 2090 2140 0
2190 2240 4214 -4215 0
4214 -2190 -2240 -4215 0
2190 -4214 -2240 -4215 0
2240 -4214 -2190 -4215 0
4215 -4214 -2190 -2240 0
2190 2240 -4214 4215 0
2240 4214 -2190 4215 0
2190 4214 -2240 4215 0
2290 2340 4215 -4216 0
4215 -2290 -2340 -4216 0
2290 -4215 -2340 -4216 0
2340 -4215 -2290 -4216 0
4216 -4215 -2290 -2340 0
2290 2340 -4215 4216 0
2340 4215 -2290 4216 0
2290 4215 -2340 4216 0
2390 2440 4216 -4217 0
4216 -2390 -2440 -4217 0
2390 -4216 -2440 -4217 0
2440 -4216 -2390 -4217 0
4217 -4216 -2390 -2440 0
2390 2440 -4216 4217 0
2440 4216 -2390 4217 0
2390 4216 -2440 4217 0
2490 2540 4217 -4218 0
4217 -2490 -2540 -4218 0
2490 -4217 -2540 -4218 0
2540 -4217 -2490 -4218 0
4218 -4217 -2490 -2540 0
2490 2540 -4217 4218 0
2540 4217 -2490 4218 0
2490 4217 -2540 4218 0
2590 2640 4218 -4219 0
4218 -2590 -2640 -4219 0
2590 -4218 -2640 -4219 0
2640 -4218 -2590 -4219 0
4219 -4218 -2590 -2640 0
2590 2640 -4218 4219 0
2640 4218 -2590 4219 0
2590 4218 -2640 4219 0
2690 2740 4219 -4220 0
4219 -2690 -2740 -4220 0
2690 -4219 -2740 -4220 0
2740 -4219 -2690 -4220 0
4220 -4219 -2690 -2740 0
2690 2740 -4219 4220 0
2740 4219 -2690 4220 0
2690 4219 -2740 4220 0
2790 2840 4220 -4221 0
4220 -2790 -2840 -4221 0
2790 -4220 -2840 -4221 0
2840 -4220 -2790 -4221 0
4221 -4220 -2790 -2840 0
2790 2840 -4220 4221 0
2840 4220 -2790 4221 0
2790 4220 -2840 4221 0
2890 2940 4221 -4222 0
4221 -2890 -2940 -4222 0
2890 -4221 -2940 -4222 0
2940 -4221 -2890 -4222 0
4222 -4221 -2890 -2940 0
2890 2940 -4221 4222 0
2940 4221 -2890 4222 0
2890 4221 -2940 4222 0
2990 3040 4222 -4223 0
4222 -2990 -3040 -4223 0
2990 -4222 -3040 -4223 0
3040 -4222 -2990 -4223 0
4223 -4222 -2990 -3040 0
2990 3040 -4222 4223 0
3040 4222 -2990 4223 0
2990 4222 -3040 4223 0
3043 4213 4223 -4224 0
-4213 4223 -3043 -4224 0
4213 -4223 -3043 -4224 0
3043 -4213 -4223 -4224 0
-4213 -4223 -3043 4224 0
3043 4213 -4223 4224 0
3043 -4213 4223 4224 0
4213 4223 -3043 4224 0
3110 3160 4224 -4225 0
4224 -3110 -3160 -4225 0
3110 -4224 -3160 -4225 0
3160 -4224 -3110 -4225 0
4225 -4224 -3110 -3160 0
3110 3160 -4224 4225 0
3160 4224 -3110 4225 0
3110 4224 -3160 4225 0
3210 4197 4225 -4226 0
-4197 4225 -3210 -4226 0
3210 -4197 -4225 -4226 0
4197 -4225 -3210 -4226 0
-4197 -4225 -3210 4226 0
3210 4197 -4225 4226 0
4197 4225 -3210 4226 0
3210 -4197 4225 4226 0
-3374 4227 0
3345 4227 0
-3311 4227 0
-3289 4227 0
4159 4227 0
4158 4227 0
4157 4227 0
4156 4227 0
-4146 4227 0
-4155 4227 0
4154 4227 0
-4153 4227 0
4152 4227 0
4151 4227 0
4150 4227 0
-4147 4227 0
-4149 4227 0
4148 4227 0
4145 4227 0
4144 4227 0
3289 3311 -3345 3374 -4144 -4145 4146 4147 -4148 4149 -4150 -4151 -4152 4153 -4154 4155 -4156 -4157 -4158 -4159 -4227 0
3374 4228 0
-3345 4228 0
-3311 4228 0
-3289 4228 0
4159 4228 0
4158 4228 0
4157 4228 0
4156 4228 0
-4146 4228 0
-4155 4228 0
4154 4228 0
4153 4228 0
-4152 4228 0
-4144 4228 0
-4151 4228 0
4150 4228 0
-4145 4228 0
-4149 4228 0
-4148 4228 0
4147 4228 0
3289 3311 3345 -3374 4144 4145 4146 -4147 4148 4149 -4150 4151 4152 -4153 -4154 4155 -4156 -4157 -4158 -4159 -4228 0
4196 4229 0
3289 3311 -3345 3374 4144 -4145 4146 4147 -4148 4149 -4150 -4151 -4152 4153 -4154 4155 -4156 -4157 -4158 -4159 4229 0
4228 4229 0
4194 4229 0
4193 4229 0
4192 4229 0
4191 4229 0
4227 4229 0
4189 4229 0
4188 4229 0
-3374 -4188 -4189 -4191 -4192 -4193 -4194 -4196 -4227 -4228 -4229 0
3345 -4188 -4189 -4191 -4192 -4193 -4194 -4196 -4227 -4228 -4229 0
-3311 -4188 -4189 -4191 -4192 -4193 -4194 -4196 -4227 -4228 -4229 0
-3289 -4188 -4189 -4191 -4192 -4193 -4194 -4196 -4227 -4228 -4229 0
4159 -4188 -4189 -4191 -4192 -4193 -4194 -4196 -4227 -4228 -4229 0
4158 -4188 -4189 -4191 -4192 -4193 -4194 -4196 -4227 -4228 -4229 0
4157 -4188 -4189 -4191 -4192 -4193 -4194 -4196 -4227 -4228 -4229 0
4156 -4188 -4189 -4191 -4192 -4193 -4194 -4196 -4227 -4228 -4229 0
-4146 -4188 -4189 -4191 -4192 -4193 -4194 -4196 -4227 -4228 -4229 0
-4155 -4188 -4189 -4191 -4192 -4193 -4194 -4196 -4227 -4228 -4229 0
4154 -4188 -4189 -4191 -4192 -4193 -4194 -4196 -4227 -4228 -4229 0
-4153 -4188 -4189 -4191 -4192 -4193 -4194 -4196 -4227 -4228 -4229 0
4152 -4188 -4189 -4191 -4192 -4193 -4194 -4196 -4227 -4228 -4229 0
-4144 -4188 -4189 -4191 -4192 -4193 -4194 -4196 -4227 -4228 -4229 0
4151 -4188 -4189 -4191 -4192 -4193 -4194 -4196 -4227 -4228 -4229 0
4150 -4188 -4189 -4191 -4192 -4193 -4194 -4196 -4227 -4228 -4229 0
-4147 -4188 -4189 -4191 -4192 -4193 -4194 -4196 -4227 -4228 -4229 0
-4149 -4188 -4189 -4191 -4192 -4193 -4194 -4196 -4227 -4228 -4229 0
4148 -4188 -4189 -4191 -4192 -4193 -4194 -4196 -4227 -4228 -4229 0
4145 -4188 -4189 -4191 -4192 -4193 -4194 -4196 -4227 -4228 -4229 0
3909 -2345 -4230 0
2345 -3909 -4230 0
4230 -3909 -2345 0
2345 3909 4230 0
2407 2457 4230 -4231 0
4230 -2407 -2457 -4231 0
2407 -4230 -2457 -4231 0
2457 -4230 -2407 -4231 0
4231 -4230 -2407 -2457 0
2407 2457 -4230 4231 0
2457 4230 -2407 4231 0
2407 4230 -2457 4231 0
2507 2557 4231 -4232 0
4231 -2507 -2557 -4232 0
2507 -4231 -2557 -4232 0
2557 -4231 -2507 -4232 0
-4231 -2507 -2557 4232 0
2507 2557 -4231 4232 0
2557 4231 -2507 4232 0
2507 4231 -2557 4232 0
2607 2654 4232 -4233 0
4232 -2607 -2654 -4233 0
2607 -4232 -2654 -4233 0
2654 -4232 -2607 -4233 0
4233 -4232 -2607 -2654 0
2607 2654 -4232 4233 0
2654 4232 -2607 4233 0
2607 4232 -2654 4233 0
2704 4205 4233 -4234 0
-4205 4233 -2704 -4234 0
2704 -4205 -4233 -4234 0
4205 -4233 -2704 -4234 0
-4205 -4233 -2704 4234 0
2704 4205 -4233 4234 0
4205 4233 -2704 4234 0
2704 -4205 4233 4234 0
2743 2807 4234 -4235 0
4234 -2743 -2807 -4235 0
2743 -4234 -2807 -4235 0
2807 -4234 -2743 -4235 0
4235 -4234 -2743 -2807 0
2743 2807 -4234 4235 0
2807 4234 -2743 4235 0
2743 4234 -2807 4235 0
2854 2907 4235 -4236 0
4235 -2854 -2907 -4236 0
2854 -4235 -2907 -4236 0
2907 -4235 -2854 -4236 0
4236 -4235 -2854 -2907 0
2854 2907 -4235 4236 0
2907 4235 -2854 4236 0
2854 4235 -2907 4236 0
2943 4169 4236 -4237 0
-4169 4236 -2943 -4237 0
4169 -4236 -2943 -4237 0
2943 -4169 -4236 -4237 0
-4169 -4236 -2943 4237 0
2943 4169 -4236 4237 0
2943 -4169 4236 4237 0
4169 4236 -2943 4237 0
3007 3057 4237 -4238 0
4237 -3007 -3057 -4238 0
3007 -4237 -3057 -4238 0
3057 -4237 -3007 -4238 0
4238 -4237 -3007 -3057 0
3007 3057 -4237 4238 0
3057 4237 -3007 4238 0
3007 4237 -3057 4238 0
3107 3157 4238 -4239 0
4238 -3107 -3157 -4239 0
3107 -4238 -3157 -4239 0
3157 -4238 -3107 -4239 0
4239 -4238 -3107 -3157 0
3107 3157 -4238 4239 0
3157 4238 -3107 4239 0
3107 4238 -3157 4239 0
3207 4229 4239 -4240 0
-4229 4239 -3207 -4240 0
3207 -4229 -4239 -4240 0
4229 -4239 -3207 -4240 0
-4229 -4239 -3207 4240 0
3207 4229 -4239 4240 0
4229 4239 -3207 4240 0
3207 -4229 4239 4240 0
-4226 4240 -4241 0
4226 -4240 -4241 0
-4226 -4240 4241 0
4226 4240 4241 0
-3374 4242 0
3345 4242 0
-3311 4242 0
-3289 4242 0
4159 4242 0
4158 4242 0
4157 4242 0
4156 4242 0
-4146 4242 0
-4155 4242 0
4154 4242 0
4153 4242 0
4152 4242 0
-4144 4242 0
4151 4242 0
4150 4242 0
-4147 4242 0
-4149 4242 0
4148 4242 0
4145 4242 0
3289 3311 -3345 3374 4144 -4145 4146 4147 -4148 4149 -4150 -4151 -4152 -4153 -4154 4155 -4156 -4157 -4158 -4159 -4242 0
-3374 4243 0
3345 4243 0
-3311 4243 0
-3289 4243 0
4159 4243 0
4158 4243 0
4157 4243 0
4156 4243 0
-4146 4243 0
-4155 4243 0
4154 4243 0
-4153 4243 0
4152 4243 0
-4144 4243 0
4151 4243 0
4150 4243 0
-4147 4243 0
-4145 4243 0
-4149 4243 0
-4148 4243 0
3289 3311 -3345 3374 4144 4145 4146 4147 4148 4149 -4150 -4151 -4152 4153 -4154 4155 -4156 -4157 -4158 -4159 -4243 0
-3374 4244 0
3345 4244 0
-3311 4244 0
-3289 4244 0
4159 4244 0
4158 4244 0
4157 4244 0
4156 4244 0
-4146 4244 0
-4155 4244 0
4154 4244 0
4153 4244 0
4152 4244 0
-4144 4244 0
4151 4244 0
4150 4244 0
-4147 4244 0
-4145 4244 0
-4149 4244 0
-4148 4244 0
3289 3311 -3345 3374 4144 4145 4146 4147 4148 4149 -4150 -4151 -4152 -4153 -4154 4155 -4156 -4157 -4158 -4159 -4244 0
-3374 4245 0
3345 4245 0
-3311 4245 0
-3289 4245 0
4159 4245 0
4158 4245 0
4157 4245 0
4156 4245 0
-4146 4245 0
-4155 4245 0
4154 4245 0
-4153 4245 0
4152 4245 0
4151 4245 0
4150 4245 0
-4147 4245 0
-4145 4245 0
-4149 4245 0
-4148 4245 0
4144 4245 0
3289 3311 -3345 3374 -4144 4145 4146 4147 4148 4149 -4150 -4151 -4152 4153 -4154 4155 -4156 -4157 -4158 -4159 -4245 0
-3374 4246 0
3345 4246 0
-3311 4246 0
-3289 4246 0
4159 4246 0
4158 4246 0
4157 4246 0
4156 4246 0
-4146 4246 0
-4155 4246 0
4154 4246 0
4153 4246 0
4152 4246 0
4151 4246 0
4150 4246 0
-4147 4246 0
-4145 4246 0
-4149 4246 0
-4148 4246 0
4144 4246 0
3289 3311 -3345 3374 -4144 4145 4146 4147 4148 4149 -4150 -4151 -4152 -4153 -4154 4155 -4156 -4157 -4158 -4159 -4246 0
-3374 4247 0
3345 4247 0
-3311 4247 0
-3289 4247 0
4159 4247 0
4158 4247 0
4157 4247 0
4156 4247 0
-4146 4247 0
-4155 4247 0
4154 4247 0
4153 4247 0
4152 4247 0
4151 4247 0
4150 4247 0
-4147 4247 0
-4149 4247 0
4148 4247 0
4145 4247 0
4144 4247 0
3289 3311 -3345 3374 -4144 -4145 4146 4147 -4148 4149 -4150 -4151 -4152 -4153 -4154 4155 -4156 -4157 -4158 -4159 -4247 0
-3374 4248 0
3345 4248 0
-3311 4248 0
-3289 4248 0
4159 4248 0
4158 4248 0
4157 4248 0
4156 4248 0
-4146 4248 0
-4155 4248 0
4154 4248 0
4153 4248 0
4152 4248 0
-4144 4248 0
4151 4248 0
4150 4248 0
-4147 4248 0
-4145 4248 0
-4149 4248 0
4148 4248 0
3289 3311 -3345 3374 4144 4145 4146 4147 -4148 4149 -4150 -4151 -4152 -4153 -4154 4155 -4156 -4157 -4158 -4159 -4248 0
-3374 4249 0
-3345 4249 0
3311 4249 0
-3289 4249 0
4159 4249 0
4158 4249 0
4157 4249 0
-4156 4249 0
-4155 4249 0
4154 4249 0
4153 4249 0
4152 4249 0
-4151 4249 0
4150 4249 0
-4149 4249 0
-4148 4249 0
4147 4249 0
4146 4249 0
4145 4249 0
4144 4249 0
3289 -3311 3345 3374 -4144 -4145 -4146 -4147 4148 4149 -4150 4151 -4152 -4153 -4154 4155 4156 -4157 -4158 -4159 -4249 0
3289 3311 -3345 3374 4144 4145 4146 4147 -4148 4149 -4150 -4151 -4152 4153 -4154 4155 -4156 -4157 -4158 -4159 4250 0
4249 4250 0
4248 4250 0
4138 4250 0
4137 4250 0
4135 4250 0
4247 4250 0
4246 4250 0
4245 4250 0
4244 4250 0
4243 4250 0
4242 4250 0
-3374 -4135 -4137 -4138 -4242 -4243 -4244 -4245 -4246 -4247 -4248 -4249 -4250 0
3345 -4135 -4137 -4138 -4242 -4243 -4244 -4245 -4246 -4247 -4248 -4249 -4250 0
-3311 -4135 -4137 -4138 -4242 -4243 -4244 -4245 -4246 -4247 -4248 -4249 -4250 0
-3289 -4135 -4137 -4138 -4242 -4243 -4244 -4245 -4246 -4247 -4248 -4249 -4250 0
-4135 -4137 -4138 4159 -4242 -4243 -4244 -4245 -4246 -4247 -4248 -4249 -4250 0
-4135 -4137 -4138 4158 -4242 -4243 -4244 -4245 -4246 -4247 -4248 -4249 -4250 0
-4135 -4137 -4138 4157 -4242 -4243 -4244 -4245 -4246 -4247 -4248 -4249 -4250 0
-4135 -4137 -4138 4156 -4242 -4243 -4244 -4245 -4246 -4247 -4248 -4249 -4250 0
-4135 -4137 -4138 -4146 -4242 -4243 -4244 -4245 -4246 -4247 -4248 -4249 -4250 0
-4135 -4137 -4138 -4155 -4242 -4243 -4244 -4245 -4246 -4247 -4248 -4249 -4250 0
-4135 -4137 -4138 4154 -4242 -4243 -4244 -4245 -4246 -4247 -4248 -4249 -4250 0
-4135 -4137 -4138 -4153 -4242 -4243 -4244 -4245 -4246 -4247 -4248 -4249 -4250 0
-4135 -4137 -4138 4152 -4242 -4243 -4244 -4245 -4246 -4247 -4248 -4249 -4250 0
-4135 -4137 -4138 -4144 -4242 -4243 -4244 -4245 -4246 -4247 -4248 -4249 -4250 0
-4135 -4137 -4138 4151 -4242 -4243 -4244 -4245 -4246 -4247 -4248 -4249 -4250 0
-4135 -4137 -4138 4150 -4242 -4243 -4244 -4245 -4246 -4247 -4248 -4249 -4250 0
-4135 -4137 -4138 -4147 -4242 -4243 -4244 -4245 -4246 -4247 -4248 -4249 -4250 0
-4135 -4137 -4138 -4145 -4242 -4243 -4244 -4245 -4246 -4247 -4248 -4249 -4250 0
-4135 -4137 -4138 -4149 -4242 -4243 -4244 -4245 -4246 -4247 -4248 -4249 -4250 0
-4135 -4137 -4138 4148 -4242 -4243 -4244 -4245 -4246 -4247 -4248 -4249 -4250 0
4223 -3045 -4251 0
3045 -4223 -4251 0
4251 -4223 -3045 0
3045 4223 4251 0
4251 -3095 -4252 0
3095 -4251 -4252 0
4252 -4251 -3095 0
3095 4251 4252 0
2545 2619 3841 -4253 0
3841 -2545 -2619 -4253 0
2545 -3841 -2619 -4253 0
2619 -3841 -2545 -4253 0
4253 -3841 -2545 -2619 0
2545 2619 -3841 4253 0
2619 3841 -2545 4253 0
2545 3841 -2619 4253 0
2666 2716 4253 -4254 0
4253 -2666 -2716 -4254 0
2666 -4253 -2716 -4254 0
2716 -4253 -2666 -4254 0
4254 -4253 -2666 -2716 0
2666 2716 -4253 4254 0
2716 4253 -2666 4254 0
2666 4253 -2716 4254 0
2766 2816 4254 -4255 0
4254 -2766 -2816 -4255 0
2766 -4254 -2816 -4255 0
2816 -4254 -2766 -4255 0
4255 -4254 -2766 -2816 0
2766 2816 -4254 4255 0
2816 4254 -2766 4255 0
2766 4254 -2816 4255 0
2866 2916 4255 -4256 0
4255 -2866 -2916 -4256 0
2866 -4255 -2916 -4256 0
2916 -4255 -2866 -4256 0
4256 -4255 -2866 -2916 0
2866 2916 -4255 4256 0
2916 4255 -2866 4256 0
2866 4255 -2916 4256 0
2966 3016 4256 -4257 0
4256 -2966 -3016 -4257 0
2966 -4256 -3016 -4257 0
3016 -4256 -2966 -4257 0
4257 -4256 -2966 -3016 0
2966 3016 -4256 4257 0
3016 4256 -2966 4257 0
2966 4256 -3016 4257 0
3066 3116 4257 -4258 0
4257 -3066 -3116 -4258 0
3066 -4257 -3116 -4258 0
3116 -4257 -3066 -4258 0
4258 -4257 -3066 -3116 0
3066 3116 -4257 4258 0
3116 4257 -3066 4258 0
3066 4257 -3116 4258 0
3143 4252 4258 -4259 0
-4252 4258 -3143 -4259 0
4252 -4258 -3143 -4259 0
3143 -4252 -4258 -4259 0
-4252 -4258 -3143 4259 0
3143 4252 -4258 4259 0
3143 -4252 4258 4259 0
4252 4258 -3143 4259 0
3219 4250 4259 -4260 0
-4250 4259 -3219 -4260 0
3219 -4250 -4259 -4260 0
4250 -4259 -3219 -4260 0
-4250 -4259 -3219 4260 0
3219 4250 -4259 4260 0
4250 4259 -3219 4260 0
3219 -4250 4259 4260 0
4179 4241 4260 -4261 0
-4179 -4241 4260 -4261 0
-4179 4241 -4260 -4261 0
4179 -4241 -4260 -4261 0
-4179 -4241 -4260 4261 0
4179 4241 -4260 4261 0
4179 -4241 4260 4261 0
-4179 4241 4260 4261 0
-3374 4262 0
-3345 4262 0
3311 4262 0
-3289 4262 0
4159 4262 0
-4158 4262 0
4157 4262 0
-4156 4262 0
-4146 4262 0
-4155 4262 0
4154 4262 0
4153 4262 0
4152 4262 0
-4151 4262 0
4150 4262 0
-4145 4262 0
-4149 4262 0
-4148 4262 0
4147 4262 0
4144 4262 0
3289 -3311 3345 3374 -4144 4145 4146 -4147 4148 4149 -4150 4151 -4152 -4153 -4154 4155 4156 -4157 4158 -4159 -4262 0
-3374 4263 0
-3345 4263 0
3311 4263 0
-3289 4263 0
4159 4263 0
4158 4263 0
4157 4263 0
-4156 4263 0
-4146 4263 0
-4155 4263 0
4154 4263 0
4153 4263 0
4152 4263 0
-4151 4263 0
4150 4263 0
-4145 4263 0
-4149 4263 0
-4148 4263 0
4147 4263 0
4144 4263 0
3289 -3311 3345 3374 -4144 4145 4146 -4147 4148 4149 -4150 4151 -4152 -4153 -4154 4155 4156 -4157 -4158 -4159 -4263 0
3289 3311 -3345 3374 4144 -4145 4146 4147 -4148 4149 -4150 -4151 -4152 4153 -4154 4155 -4156 -4157 -4158 -4159 4264 0
4263 4264 0
4245 4264 0
4262 4264 0
-3374 -4245 -4262 -4263 -4264 0
3345 -4245 -4262 -4263 -4264 0
-3311 -4245 -4262 -4263 -4264 0
-3289 -4245 -4262 -4263 -4264 0
4159 -4245 -4262 -4263 -4264 0
4158 -4245 -4262 -4263 -4264 0
4157 -4245 -4262 -4263 -4264 0
4156 -4245 -4262 -4263 -4264 0
-4146 -4245 -4262 -4263 -4264 0
-4155 -4245 -4262 -4263 -4264 0
4154 -4245 -4262 -4263 -4264 0
-4153 -4245 -4262 -4263 -4264 0
4152 -4245 -4262 -4263 -4264 0
-4144 -4245 -4262 -4263 -4264 0
4151 -4245 -4262 -4263 -4264 0
4150 -4245 -4262 -4263 -4264 0
-4147 -4245 -4262 -4263 -4264 0
-4149 -4245 -4262 -4263 -4264 0
4148 -4245 -4262 -4263 -4264 0
4145 -4245 -4262 -4263 -4264 0
3423 -2195 -4265 0
2195 -3423 -4265 0
4265 -3423 -2195 0
2195 3423 4265 0
2254 2304 4265 -4266 0
4265 -2254 -2304 -4266 0
2254 -4265 -2304 -4266 0
2304 -4265 -2254 -4266 0
4266 -4265 -2254 -2304 0
2254 2304 -4265 4266 0
2304 4265 -2254 4266 0
2254 4265 -2304 4266 0
2354 2404 4266 -4267 0
4266 -2354 -2404 -4267 0
2354 -4266 -2404 -4267 0
2404 -4266 -2354 -4267 0
4267 -4266 -2354 -2404 0
2354 2404 -4266 4267 0
2404 4266 -2354 4267 0
2354 4266 -2404 4267 0
2454 2504 4267 -4268 0
4267 -2454 -2504 -4268 0
2454 -4267 -2504 -4268 0
2504 -4267 -2454 -4268 0
4268 -4267 -2454 -2504 0
2454 2504 -4267 4268 0
2504 4267 -2454 4268 0
2454 4267 -2504 4268 0
2554 2604 4268 -4269 0
4268 -2554 -2604 -4269 0
2554 -4268 -2604 -4269 0
2604 -4268 -2554 -4269 0
4269 -4268 -2554 -2604 0
2554 2604 -4268 4269 0
2604 4268 -2554 4269 0
2554 4268 -2604 4269 0
2651 2701 4269 -4270 0
4269 -2651 -2701 -4270 0
2651 -4269 -2701 -4270 0
2701 -4269 -2651 -4270 0
4270 -4269 -2651 -2701 0
2651 2701 -4269 4270 0
2701 4269 -2651 4270 0
2651 4269 -2701 4270 0
2754 2804 4270 -4271 0
4270 -2754 -2804 -4271 0
2754 -4270 -2804 -4271 0
2804 -4270 -2754 -4271 0
4271 -4270 -2754 -2804 0
2754 2804 -4270 4271 0
2804 4270 -2754 4271 0
2754 4270 -2804 4271 0
2084 -2134 -4272 0
2134 -2084 -4272 0
4272 -2084 -2134 0
4272 2084 2134 0
2184 2234 4272 -4273 0
4272 -2184 -2234 -4273 0
2184 -4272 -2234 -4273 0
2234 -4272 -2184 -4273 0
4273 -4272 -2184 -2234 0
2184 2234 -4272 4273 0
2234 4272 -2184 4273 0
2184 4272 -2234 4273 0
2284 2334 4273 -4274 0
4273 -2284 -2334 -4274 0
2284 -4273 -2334 -4274 0
2334 -4273 -2284 -4274 0
4274 -4273 -2284 -2334 0
2284 2334 -4273 4274 0
2334 4273 -2284 4274 0
2284 4273 -2334 4274 0
2384 2434 4274 -4275 0
4274 -2384 -2434 -4275 0
2384 -4274 -2434 -4275 0
2434 -4274 -2384 -4275 0
4275 -4274 -2384 -2434 0
2384 2434 -4274 4275 0
2434 4274 -2384 4275 0
2384 4274 -2434 4275 0
2484 2534 4275 -4276 0
4275 -2484 -2534 -4276 0
2484 -4275 -2534 -4276 0
2534 -4275 -2484 -4276 0
4276 -4275 -2484 -2534 0
2484 2534 -4275 4276 0
2534 4275 -2484 4276 0
2484 4275 -2534 4276 0
2584 2634 4276 -4277 0
4276 -2584 -2634 -4277 0
2584 -4276 -2634 -4277 0
2634 -4276 -2584 -4277 0
4277 -4276 -2584 -2634 0
2584 2634 -4276 4277 0
2634 4276 -2584 4277 0
2584 4276 -2634 4277 0
2684 2734 4277 -4278 0
4277 -2684 -2734 -4278 0
2684 -4277 -2734 -4278 0
2734 -4277 -2684 -4278 0
4278 -4277 -2684 -2734 0
2684 2734 -4277 4278 0
2734 4277 -2684 4278 0
2684 4277 -2734 4278 0
2784 2834 4278 -4279 0
4278 -2784 -2834 -4279 0
2784 -4278 -2834 -4279 0
2834 -4278 -2784 -4279 0
4279 -4278 -2784 -2834 0
2784 2834 -4278 4279 0
2834 4278 -2784 4279 0
2784 4278 -2834 4279 0
2843 4271 4279 -4280 0
-4271 4279 -2843 -4280 0
4271 -4279 -2843 -4280 0
2843 -4271 -4279 -4280 0
-4271 -4279 -2843 4280 0
2843 4271 -4279 4280 0
2843 -4271 4279 4280 0
4271 4279 -2843 4280 0
2904 2954 4280 -4281 0
4280 -2904 -2954 -4281 0
2904 -4280 -2954 -4281 0
2954 -4280 -2904 -4281 0
4281 -4280 -2904 -2954 0
2904 2954 -4280 4281 0
2954 4280 -2904 4281 0
2904 4280 -2954 4281 0
3004 3054 4281 -4282 0
4281 -3004 -3054 -4282 0
3004 -4281 -3054 -4282 0
3054 -4281 -3004 -4282 0
4282 -4281 -3004 -3054 0
3004 3054 -4281 4282 0
3054 4281 -3004 4282 0
3004 4281 -3054 4282 0
3104 3154 4282 -4283 0
4282 -3104 -3154 -4283 0
3104 -4282 -3154 -4283 0
3154 -4282 -3104 -4283 0
4283 -4282 -3104 -3154 0
3104 3154 -4282 4283 0
3154 4282 -3104 4283 0
3104 4282 -3154 4283 0
3204 4264 4283 -4284 0
-4264 4283 -3204 -4284 0
3204 -4264 -4283 -4284 0
4264 -4283 -3204 -4284 0
-4264 -4283 -3204 4284 0
3204 4264 -4283 4284 0
4264 4283 -3204 4284 0
3204 -4264 4283 4284 0
-3374 4285 0
3345 4285 0
-3311 4285 0
-3289 4285 0
4159 4285 0
4158 4285 0
4157 4285 0
4156 4285 0
-4146 4285 0
-4155 4285 0
4154 4285 0
-4153 4285 0
4152 4285 0
-4144 4285 0
4151 4285 0
4150 4285 0
-4147 4285 0
-4149 4285 0
4148 4285 0
4145 4285 0
3289 3311 -3345 3374 4144 -4145 4146 4147 -4148 4149 -4150 -4151 -4152 4153 -4154 4155 -4156 -4157 -4158 -4159 -4285 0
3289 -3311 3345 3374 -4144 -4145 -4146 -4147 4148 4149 -4150 4151 -4152 -4153 -4154 4155 4156 -4157 -4158 -4159 4286 0
4285 4286 0
4143 4286 0
4228 4286 0
4194 4286 0
4191 4286 0
4227 4286 0
4189 4286 0
4138 4286 0
4136 4286 0
-3374 -4136 -4138 -4143 -4189 -4191 -4194 -4227 -4228 -4285 -4286 0
-3345 -4136 -4138 -4143 -4189 -4191 -4194 -4227 -4228 -4285 -4286 0
3311 -4136 -4138 -4143 -4189 -4191 -4194 -4227 -4228 -4285 -4286 0
-3289 -4136 -4138 -4143 -4189 -4191 -4194 -4227 -4228 -4285 -4286 0
-4136 -4138 -4143 4159 -4189 -4191 -4194 -4227 -4228 -4285 -4286 0
-4136 -4138 -4143 4158 -4189 -4191 -4194 -4227 -4228 -4285 -4286 0
-4136 -4138 -4143 4157 -4189 -4191 -4194 -4227 -4228 -4285 -4286 0
-4136 -4138 -4143 -4156 -4189 -4191 -4194 -4227 -4228 -4285 -4286 0
-4136 -4138 -4143 -4155 -4189 -4191 -4194 -4227 -4228 -4285 -4286 0
-4136 -4138 -4143 4154 -4189 -4191 -4194 -4227 -4228 -4285 -4286 0
-4136 -4138 -4143 4153 -4189 -4191 -4194 -4227 -4228 -4285 -4286 0
-4136 -4138 -4143 4152 -4189 -4191 -4194 -4227 -4228 -4285 -4286 0
-4136 -4138 -4143 -4151 -4189 -4191 -4194 -4227 -4228 -4285 -4286 0
-4136 -4138 -4143 4150 -4189 -4191 -4194 -4227 -4228 -4285 -4286 0
-4136 -4138 -4143 -4149 -4189 -4191 -4194 -4227 -4228 -4285 -4286 0
-4136 -4138 -4143 -4148 -4189 -4191 -4194 -4227 -4228 -4285 -4286 0
-4136 -4138 -4143 4147 -4189 -4191 -4194 -4227 -4228 -4285 -4286 0
-4136 -4138 -4143 4146 -4189 -4191 -4194 -4227 -4228 -4285 -4286 0
-4136 -4138 -4143 4145 -4189 -4191 -4194 -4227 -4228 -4285 -4286 0
-4136 -4138 -4143 4144 -4189 -4191 -4194 -4227 -4228 -4285 -4286 0
2145 2201 3441 -4287 0
3441 -2145 -2201 -4287 0
2145 -3441 -2201 -4287 0
2201 -3441 -2145 -4287 0
4287 -3441 -2145 -2201 0
2145 2201 -3441 4287 0
2201 3441 -2145 4287 0
2145 3441 -2201 4287 0
2251 2301 4287 -4288 0
4287 -2251 -2301 -4288 0
2251 -4287 -2301 -4288 0
2301 -4287 -2251 -4288 0
4288 -4287 -2251 -2301 0
2251 2301 -4287 4288 0
2301 4287 -2251 4288 0
2251 4287 -2301 4288 0
2351 2401 4288 -4289 0
4288 -2351 -2401 -4289 0
2351 -4288 -2401 -4289 0
2401 -4288 -2351 -4289 0
4289 -4288 -2351 -2401 0
2351 2401 -4288 4289 0
2401 4288 -2351 4289 0
2351 4288 -2401 4289 0
2451 2501 4289 -4290 0
4289 -2451 -2501 -4290 0
2451 -4289 -2501 -4290 0
2501 -4289 -2451 -4290 0
4290 -4289 -2451 -2501 0
2451 2501 -4289 4290 0
2501 4289 -2451 4290 0
2451 4289 -2501 4290 0
2551 2601 4290 -4291 0
4290 -2551 -2601 -4291 0
2551 -4290 -2601 -4291 0
2601 -4290 -2551 -4291 0
4291 -4290 -2551 -2601 0
2551 2601 -4290 4291 0
2601 4290 -2551 4291 0
2551 4290 -2601 4291 0
2648 4204 4291 -4292 0
-4204 4291 -2648 -4292 0
2648 -4204 -4291 -4292 0
4204 -4291 -2648 -4292 0
-4204 -4291 -2648 4292 0
2648 4204 -4291 4292 0
4204 4291 -2648 4292 0
2648 -4204 4291 4292 0
2693 2751 4292 -4293 0
4292 -2693 -2751 -4293 0
2693 -4292 -2751 -4293 0
2751 -4292 -2693 -4293 0
4293 -4292 -2693 -2751 0
2693 2751 -4292 4293 0
2751 4292 -2693 4293 0
2693 4292 -2751 4293 0
2801 2851 4293 -4294 0
4293 -2801 -2851 -4294 0
2801 -4293 -2851 -4294 0
2851 -4293 -2801 -4294 0
4294 -4293 -2801 -2851 0
2801 2851 -4293 4294 0
2851 4293 -2801 4294 0
2801 4293 -2851 4294 0
2901 2951 4294 -4295 0
4294 -2901 -2951 -4295 0
2901 -4294 -2951 -4295 0
2951 -4294 -2901 -4295 0
4295 -4294 -2901 -2951 0
2901 2951 -4294 4295 0
2951 4294 -2901 4295 0
2901 4294 -2951 4295 0
3001 3051 4295 -4296 0
4295 -3001 -3051 -4296 0
3001 -4295 -3051 -4296 0
3051 -4295 -3001 -4296 0
4296 -4295 -3001 -3051 0
3001 3051 -4295 4296 0
3051 4295 -3001 4296 0
3001 4295 -3051 4296 0
3101 3151 4296 -4297 0
4296 -3101 -3151 -4297 0
3101 -4296 -3151 -4297 0
3151 -4296 -3101 -4297 0
4297 -4296 -3101 -3151 0
3101 3151 -4296 4297 0
3151 4296 -3101 4297 0
3101 4296 -3151 4297 0
3201 4286 4297 -4298 0
-4286 4297 -3201 -4298 0
3201 -4286 -4297 -4298 0
4286 -4297 -3201 -4298 0
-4286 -4297 -3201 4298 0
3201 4286 -4297 4298 0
4286 4297 -3201 4298 0
3201 -4286 4297 4298 0
4226 4284 4298 -4299 0
-4226 -4284 4298 -4299 0
-4226 4284 -4298 -4299 0
4226 -4284 -4298 -4299 0
-4226 -4284 -4298 4299 0
4226 4284 -4298 4299 0
4226 -4284 4298 4299 0
-4226 4284 4298 4299 0
3289 3311 3345 -3374 -4144 4145 4146 -4147 4148 4149 -4150 4151 -4152 -4153 -4154 4155 4156 -4157 -4158 -4159 4300 0
4135 4300 0
4247 4300 0
4246 4300 0
3374 -4135 -4246 -4247 -4300 0
-3345 -4135 -4246 -4247 -4300 0
-3311 -4135 -4246 -4247 -4300 0
-3289 -4135 -4246 -4247 -4300 0
-4135 4159 -4246 -4247 -4300 0
-4135 4158 -4246 -4247 -4300 0
-4135 4157 -4246 -4247 -4300 0
-4135 -4156 -4246 -4247 -4300 0
-4135 -4146 -4246 -4247 -4300 0
-4135 -4155 -4246 -4247 -4300 0
-4135 4154 -4246 -4247 -4300 0
-4135 4153 -4246 -4247 -4300 0
-4135 4152 -4246 -4247 -4300 0
-4135 -4151 -4246 -4247 -4300 0
-4135 4150 -4246 -4247 -4300 0
-4135 -4145 -4246 -4247 -4300 0
-4135 -4149 -4246 -4247 -4300 0
-4135 -4148 -4246 -4247 -4300 0
-4135 4147 -4246 -4247 -4300 0
-4135 4144 -4246 -4247 -4300 0
4279 -2845 -4301 0
2845 -4279 -4301 0
4301 -4279 -2845 0
2845 4279 4301 0
3465 -2295 -4302 0
2295 -3465 -4302 0
4302 -3465 -2295 0
2295 3465 4302 0
2360 2410 4302 -4303 0
4302 -2360 -2410 -4303 0
2360 -4302 -2410 -4303 0
2410 -4302 -2360 -4303 0
4303 -4302 -2360 -2410 0
2360 2410 -4302 4303 0
2410 4302 -2360 4303 0
2360 4302 -2410 4303 0
2463 2513 4303 -4304 0
4303 -2463 -2513 -4304 0
2463 -4303 -2513 -4304 0
2513 -4303 -2463 -4304 0
4304 -4303 -2463 -2513 0
2463 2513 -4303 4304 0
2513 4303 -2463 4304 0
2463 4303 -2513 4304 0
2563 2613 4304 -4305 0
4304 -2563 -2613 -4305 0
2563 -4304 -2613 -4305 0
2613 -4304 -2563 -4305 0
4305 -4304 -2563 -2613 0
2563 2613 -4304 4305 0
2613 4304 -2563 4305 0
2563 4304 -2613 4305 0
2660 2710 4305 -4306 0
4305 -2660 -2710 -4306 0
2660 -4305 -2710 -4306 0
2710 -4305 -2660 -4306 0
4306 -4305 -2660 -2710 0
2660 2710 -4305 4306 0
2710 4305 -2660 4306 0
2660 4305 -2710 4306 0
2760 2810 4306 -4307 0
4306 -2760 -2810 -4307 0
2760 -4306 -2810 -4307 0
2810 -4306 -2760 -4307 0
4307 -4306 -2760 -2810 0
2760 2810 -4306 4307 0
2810 4306 -2760 4307 0
2760 4306 -2810 4307 0
2860 4301 4307 -4308 0
-4301 4307 -2860 -4308 0
2860 -4301 -4307 -4308 0
4301 -4307 -2860 -4308 0
-4301 -4307 -2860 4308 0
2860 4301 -4307 4308 0
4301 4307 -2860 4308 0
2860 -4301 4307 4308 0
2893 2960 4308 -4309 0
4308 -2893 -2960 -4309 0
2893 -4308 -2960 -4309 0
2960 -4308 -2893 -4309 0
4309 -4308 -2893 -2960 0
2893 2960 -4308 4309 0
2960 4308 -2893 4309 0
2893 4308 -2960 4309 0
3013 3060 4309 -4310 0
4309 -3013 -3060 -4310 0
3013 -4309 -3060 -4310 0
3060 -4309 -3013 -4310 0
4310 -4309 -3013 -3060 0
3013 3060 -4309 4310 0
3060 4309 -3013 4310 0
3013 4309 -3060 4310 0
3093 4251 4310 -4311 0
-4251 4310 -3093 -4311 0
4251 -4310 -3093 -4311 0
3093 -4251 -4310 -4311 0
-4251 -4310 -3093 4311 0
3093 4251 -4310 4311 0
3093 -4251 4310 4311 0
4251 4310 -3093 4311 0
3163 3213 4311 -4312 0
4311 -3163 -3213 -4312 0
3163 -4311 -3213 -4312 0
3213 -4311 -3163 -4312 0
4312 -4311 -3163 -3213 0
3163 3213 -4311 4312 0
3213 4311 -3163 4312 0
3163 4311 -3213 4312 0
4299 4300 4312 -4313 0
-4299 -4300 4312 -4313 0
-4299 4300 -4312 -4313 0
4299 -4300 -4312 -4313 0
-4299 -4300 -4312 4313 0
4299 4300 -4312 4313 0
4299 -4300 4312 4313 0
-4299 4300 4312 4313 0
3289 -3311 3345 3374 -4144 -4145 -4146 -4147 4148 4149 -4150 4151 -4152 -4153 -4154 4155 4156 -4157 -4158 -4159 4314 0
4285 4314 0
4143 4314 0
4227 4314 0
4138 4314 0
4136 4314 0
-3374 -4136 -4138 -4143 -4227 -4285 -4314 0
-3345 -4136 -4138 -4143 -4227 -4285 -4314 0
3311 -4136 -4138 -4143 -4227 -4285 -4314 0
-3289 -4136 -4138 -4143 -4227 -4285 -4314 0
-4136 -4138 -4143 4159 -4227 -4285 -4314 0
-4136 -4138 -4143 4158 -4227 -4285 -4314 0
-4136 -4138 -4143 4157 -4227 -4285 -4314 0
-4136 -4138 -4143 -4156 -4227 -4285 -4314 0
-4136 -4138 -4143 -4155 -4227 -4285 -4314 0
-4136 -4138 -4143 4154 -4227 -4285 -4314 0
-4136 -4138 -4143 4153 -4227 -4285 -4314 0
-4136 -4138 -4143 4152 -4227 -4285 -4314 0
-4136 -4138 -4143 -4151 -4227 -4285 -4314 0
-4136 -4138 -4143 4150 -4227 -4285 -4314 0
-4136 -4138 -4143 -4149 -4227 -4285 -4314 0
-4136 -4138 -4143 -4148 -4227 -4285 -4314 0
-4136 -4138 -4143 4147 -4227 -4285 -4314 0
-4136 -4138 -4143 4146 -4227 -4285 -4314 0
-4136 -4138 -4143 4145 -4227 -4285 -4314 0
-4136 -4138 -4143 4144 -4227 -4285 -4314 0
2045 2098 3939 -4315 0
3939 -2045 -2098 -4315 0
2045 -3939 -2098 -4315 0
2098 -3939 -2045 -4315 0
4315 -3939 -2045 -2098 0
2045 2098 -3939 4315 0
2098 3939 -2045 4315 0
2045 3939 -2098 4315 0
2148 2198 4315 -4316 0
4315 -2148 -2198 -4316 0
2148 -4315 -2198 -4316 0
2198 -4315 -2148 -4316 0
4316 -4315 -2148 -2198 0
2148 2198 -4315 4316 0
2198 4315 -2148 4316 0
2148 4315 -2198 4316 0
2248 2298 4316 -4317 0
4316 -2248 -2298 -4317 0
2248 -4316 -2298 -4317 0
2298 -4316 -2248 -4317 0
4317 -4316 -2248 -2298 0
2248 2298 -4316 4317 0
2298 4316 -2248 4317 0
2248 4316 -2298 4317 0
2348 2398 4317 -4318 0
4317 -2348 -2398 -4318 0
2348 -4317 -2398 -4318 0
2398 -4317 -2348 -4318 0
4318 -4317 -2348 -2398 0
2348 2398 -4317 4318 0
2398 4317 -2348 4318 0
2348 4317 -2398 4318 0
2448 2498 4318 -4319 0
4318 -2448 -2498 -4319 0
2448 -4318 -2498 -4319 0
2498 -4318 -2448 -4319 0
4319 -4318 -2448 -2498 0
2448 2498 -4318 4319 0
2498 4318 -2448 4319 0
2448 4318 -2498 4319 0
2548 2598 4319 -4320 0
4319 -2548 -2598 -4320 0
2548 -4319 -2598 -4320 0
2598 -4319 -2548 -4320 0
4320 -4319 -2548 -2598 0
2548 2598 -4319 4320 0
2598 4319 -2548 4320 0
2548 4319 -2598 4320 0
2643 4203 4320 -4321 0
4203 -4320 -2643 -4321 0
-4203 4320 -2643 -4321 0
2643 -4203 -4320 -4321 0
4321 -4203 -4320 -2643 0
2643 -4203 4320 4321 0
2643 4203 -4320 4321 0
4203 4320 -2643 4321 0
2698 2748 4321 -4322 0
4321 -2698 -2748 -4322 0
2698 -4321 -2748 -4322 0
2748 -4321 -2698 -4322 0
4322 -4321 -2698 -2748 0
2698 2748 -4321 4322 0
2748 4321 -2698 4322 0
2698 4321 -2748 4322 0
2798 2848 4322 -4323 0
4322 -2798 -2848 -4323 0
2798 -4322 -2848 -4323 0
2848 -4322 -2798 -4323 0
4323 -4322 -2798 -2848 0
2798 2848 -4322 4323 0
2848 4322 -2798 4323 0
2798 4322 -2848 4323 0
2898 2948 4323 -4324 0
4323 -2898 -2948 -4324 0
2898 -4323 -2948 -4324 0
2948 -4323 -2898 -4324 0
4324 -4323 -2898 -2948 0
2898 2948 -4323 4324 0
2948 4323 -2898 4324 0
2898 4323 -2948 4324 0
2998 3048 4324 -4325 0
4324 -2998 -3048 -4325 0
2998 -4324 -3048 -4325 0
3048 -4324 -2998 -4325 0
4325 -4324 -2998 -3048 0
2998 3048 -4324 4325 0
3048 4324 -2998 4325 0
2998 4324 -3048 4325 0
3098 3148 4325 -4326 0
4325 -3098 -3148 -4326 0
3098 -4325 -3148 -4326 0
3148 -4325 -3098 -4326 0
4326 -4325 -3098 -3148 0
3098 3148 -4325 4326 0
3148 4325 -3098 4326 0
3098 4325 -3148 4326 0
3198 4314 4326 -4327 0
-4314 4326 -3198 -4327 0
3198 -4314 -4326 -4327 0
4314 -4326 -3198 -4327 0
-4314 -4326 -3198 4327 0
3198 4314 -4326 4327 0
4314 4326 -3198 4327 0
3198 -4314 4326 4327 0
4179 4240 4327 -4328 0
-4179 -4240 4327 -4328 0
-4179 4240 -4327 -4328 0
4179 -4240 -4327 -4328 0
-4179 -4240 -4327 4328 0
4179 4240 -4327 4328 0
4179 -4240 4327 4328 0
-4179 4240 4327 4328 0
3518 -3192 -4329 0
3192 -3518 -4329 0
4329 -3518 -3192 0
3192 3518 4329 0
-3374 4330 0
3345 4330 0
-3311 4330 0
-3289 4330 0
4159 4330 0
4158 4330 0
4157 4330 0
4156 4330 0
-4146 4330 0
-4155 4330 0
4154 4330 0
-4153 4330 0
4152 4330 0
-4144 4330 0
-4151 4330 0
-4150 4330 0
-4147 4330 0
-4145 4330 0
-4149 4330 0
4148 4330 0
3289 3311 -3345 3374 4144 4145 4146 4147 -4148 4149 4150 4151 -4152 4153 -4154 4155 -4156 -4157 -4158 -4159 -4330 0
-3374 4331 0
-3345 4331 0
-3311 4331 0
3289 4331 0
4159 4331 0
4158 4331 0
-4157 4331 0
4156 4331 0
-4146 4331 0
-4155 4331 0
4154 4331 0
-4153 4331 0
4152 4331 0
-4144 4331 0
-4151 4331 0
4150 4331 0
-4147 4331 0
-4145 4331 0
-4149 4331 0
4148 4331 0
-3289 3311 3345 3374 4144 4145 4146 4147 -4148 4149 -4150 4151 -4152 4153 -4154 4155 -4156 4157 -4158 -4159 -4331 0
-3374 4332 0
-3345 4332 0
-3311 4332 0
3289 4332 0
4159 4332 0
4158 4332 0
4157 4332 0
4156 4332 0
-4146 4332 0
-4155 4332 0
4154 4332 0
-4153 4332 0
4152 4332 0
-4144 4332 0
-4151 4332 0
4150 4332 0
-4147 4332 0
-4145 4332 0
-4149 4332 0
4148 4332 0
-3289 3311 3345 3374 4144 4145 4146 4147 -4148 4149 -4150 4151 -4152 4153 -4154 4155 -4156 -4157 -4158 -4159 -4332 0
-3374 4333 0
-3345 4333 0
-3311 4333 0
3289 4333 0
4159 4333 0
4158 4333 0
4157 4333 0
4156 4333 0
-4146 4333 0
4155 4333 0
4154 4333 0
-4153 4333 0
4152 4333 0
-4144 4333 0
-4151 4333 0
4150 4333 0
-4147 4333 0
-4145 4333 0
4149 4333 0
4148 4333 0
-3289 3311 3345 3374 4144 4145 4146 4147 -4148 -4149 -4150 4151 -4152 4153 -4154 -4155 -4156 -4157 -4158 -4159 -4333 0
-3374 4334 0
3345 4334 0
-3311 4334 0
-3289 4334 0
4159 4334 0
4158 4334 0
4157 4334 0
4156 4334 0
-4146 4334 0
-4155 4334 0
4154 4334 0
4153 4334 0
4152 4334 0
-4144 4334 0
-4151 4334 0
-4150 4334 0
-4147 4334 0
-4145 4334 0
-4149 4334 0
4148 4334 0
3289 3311 -3345 3374 4144 4145 4146 4147 -4148 4149 4150 4151 -4152 -4153 -4154 4155 -4156 -4157 -4158 -4159 -4334 0
-3289 3311 3345 3374 4144 4145 4146 4147 -4148 -4149 -4150 4151 -4152 4153 -4154 -4155 -4156 4157 -4158 -4159 4335 0
4143 4335 0
4195 4335 0
4142 4335 0
4334 4335 0
4248 4335 0
4141 4335 0
4140 4335 0
4333 4335 0
4332 4335 0
4139 4335 0
4190 4335 0
4331 4335 0
4330 4335 0
4136 4335 0
-3374 -4136 -4139 -4140 -4141 -4142 -4143 -4190 -4195 -4248 -4330 -4331 -4332 -4333 -4334 -4335 0
-3345 -4136 -4139 -4140 -4141 -4142 -4143 -4190 -4195 -4248 -4330 -4331 -4332 -4333 -4334 -4335 0
-3311 -4136 -4139 -4140 -4141 -4142 -4143 -4190 -4195 -4248 -4330 -4331 -4332 -4333 -4334 -4335 0
3289 -4136 -4139 -4140 -4141 -4142 -4143 -4190 -4195 -4248 -4330 -4331 -4332 -4333 -4334 -4335 0
-4136 -4139 -4140 -4141 -4142 -4143 4159 -4190 -4195 -4248 -4330 -4331 -4332 -4333 -4334 -4335 0
-4136 -4139 -4140 -4141 -4142 -4143 4158 -4190 -4195 -4248 -4330 -4331 -4332 -4333 -4334 -4335 0
-4136 -4139 -4140 -4141 -4142 -4143 -4157 -4190 -4195 -4248 -4330 -4331 -4332 -4333 -4334 -4335 0
-4136 -4139 -4140 -4141 -4142 -4143 4156 -4190 -4195 -4248 -4330 -4331 -4332 -4333 -4334 -4335 0
-4136 -4139 -4140 -4141 -4142 -4143 -4146 -4190 -4195 -4248 -4330 -4331 -4332 -4333 -4334 -4335 0
-4136 -4139 -4140 -4141 -4142 -4143 4155 -4190 -4195 -4248 -4330 -4331 -4332 -4333 -4334 -4335 0
-4136 -4139 -4140 -4141 -4142 -4143 4154 -4190 -4195 -4248 -4330 -4331 -4332 -4333 -4334 -4335 0
-4136 -4139 -4140 -4141 -4142 -4143 -4153 -4190 -4195 -4248 -4330 -4331 -4332 -4333 -4334 -4335 0
-4136 -4139 -4140 -4141 -4142 -4143 4152 -4190 -4195 -4248 -4330 -4331 -4332 -4333 -4334 -4335 0
-4136 -4139 -4140 -4141 -4142 -4143 -4144 -4190 -4195 -4248 -4330 -4331 -4332 -4333 -4334 -4335 0
-4136 -4139 -4140 -4141 -4142 -4143 -4151 -4190 -4195 -4248 -4330 -4331 -4332 -4333 -4334 -4335 0
-4136 -4139 -4140 -4141 -4142 -4143 4150 -4190 -4195 -4248 -4330 -4331 -4332 -4333 -4334 -4335 0
-4136 -4139 -4140 -4141 -4142 -4143 -4147 -4190 -4195 -4248 -4330 -4331 -4332 -4333 -4334 -4335 0
-4136 -4139 -4140 -4141 -4142 -4143 -4145 -4190 -4195 -4248 -4330 -4331 -4332 -4333 -4334 -4335 0
-4136 -4139 -4140 -4141 -4142 -4143 4149 -4190 -4195 -4248 -4330 -4331 -4332 -4333 -4334 -4335 0
-4136 -4139 -4140 -4141 -4142 -4143 4148 -4190 -4195 -4248 -4330 -4331 -4332 -4333 -4334 -4335 0
3628 -3142 -4336 0
3142 -3628 -4336 0
4336 -3628 -3142 0
3142 3628 4336 0
3218 4335 4336 -4337 0
-4335 4336 -3218 -4337 0
3218 -4335 -4336 -4337 0
4335 -4336 -3218 -4337 0
-4335 -4336 -3218 4337 0
3218 4335 -4336 4337 0
4335 4336 -3218 4337 0
3218 -4335 4336 4337 0
-3374 4338 0
-3345 4338 0
3311 4338 0
-3289 4338 0
4159 4338 0
-4158 4338 0
4157 4338 0
4156 4338 0
-4155 4338 0
4154 4338 0
-4153 4338 0
4152 4338 0
-4144 4338 0
-4151 4338 0
4150 4338 0
-4147 4338 0
-4149 4338 0
4148 4338 0
4146 4338 0
4145 4338 0
3289 -3311 3345 3374 4144 -4145 -4146 4147 -4148 4149 -4150 4151 -4152 4153 -4154 4155 -4156 -4157 4158 -4159 -4338 0
-3374 4339 0
-3345 4339 0
3311 4339 0
-3289 4339 0
4159 4339 0
4158 4339 0
4157 4339 0
4156 4339 0
-4155 4339 0
4154 4339 0
-4153 4339 0
4152 4339 0
-4144 4339 0
-4151 4339 0
4150 4339 0
-4147 4339 0
-4149 4339 0
4148 4339 0
4146 4339 0
4145 4339 0
3289 -3311 3345 3374 4144 -4145 -4146 4147 -4148 4149 -4150 4151 -4152 4153 -4154 4155 -4156 -4157 -4158 -4159 -4339 0
-3374 4340 0
-3345 4340 0
3311 4340 0
-3289 4340 0
4159 4340 0
-4158 4340 0
4157 4340 0
-4156 4340 0
-4155 4340 0
4154 4340 0
4153 4340 0
4152 4340 0
-4144 4340 0
-4151 4340 0
4150 4340 0
-4149 4340 0
-4148 4340 0
4147 4340 0
4146 4340 0
4145 4340 0
3289 -3311 3345 3374 4144 -4145 -4146 -4147 4148 4149 -4150 4151 -4152 -4153 -4154 4155 4156 -4157 4158 -4159 -4340 0
-3374 4341 0
-3345 4341 0
3311 4341 0
-3289 4341 0
4159 4341 0
4158 4341 0
4157 4341 0
-4156 4341 0
-4155 4341 0
4154 4341 0
4153 4341 0
4152 4341 0
-4144 4341 0
-4151 4341 0
4150 4341 0
-4149 4341 0
-4148 4341 0
4147 4341 0
4146 4341 0
4145 4341 0
3289 -3311 3345 3374 4144 -4145 -4146 -4147 4148 4149 -4150 4151 -4152 -4153 -4154 4155 4156 -4157 -4158 -4159 -4341 0
3289 3311 -3345 3374 -4144 -4145 4146 4147 -4148 4149 -4150 -4151 -4152 -4153 -4154 4155 -4156 -4157 -4158 -4159 4342 0
4185 4342 0
4184 4342 0
4181 4342 0
4180 4342 0
4242 4342 0
4341 4342 0
4340 4342 0
4339 4342 0
4338 4342 0
-3374 -4180 -4181 -4184 -4185 -4242 -4338 -4339 -4340 -4341 -4342 0
3345 -4180 -4181 -4184 -4185 -4242 -4338 -4339 -4340 -4341 -4342 0
-3311 -4180 -4181 -4184 -4185 -4242 -4338 -4339 -4340 -4341 -4342 0
-3289 -4180 -4181 -4184 -4185 -4242 -4338 -4339 -4340 -4341 -4342 0
4159 -4180 -4181 -4184 -4185 -4242 -4338 -4339 -4340 -4341 -4342 0
4158 -4180 -4181 -4184 -4185 -4242 -4338 -4339 -4340 -4341 -4342 0
4157 -4180 -4181 -4184 -4185 -4242 -4338 -4339 -4340 -4341 -4342 0
4156 -4180 -4181 -4184 -4185 -4242 -4338 -4339 -4340 -4341 -4342 0
-4146 -4180 -4181 -4184 -4185 -4242 -4338 -4339 -4340 -4341 -4342 0
-4155 -4180 -4181 -4184 -4185 -4242 -4338 -4339 -4340 -4341 -4342 0
4154 -4180 -4181 -4184 -4185 -4242 -4338 -4339 -4340 -4341 -4342 0
4153 -4180 -4181 -4184 -4185 -4242 -4338 -4339 -4340 -4341 -4342 0
4152 -4180 -4181 -4184 -4185 -4242 -4338 -4339 -4340 -4341 -4342 0
4151 -4180 -4181 -4184 -4185 -4242 -4338 -4339 -4340 -4341 -4342 0
4150 -4180 -4181 -4184 -4185 -4242 -4338 -4339 -4340 -4341 -4342 0
-4147 -4180 -4181 -4184 -4185 -4242 -4338 -4339 -4340 -4341 -4342 0
-4149 -4180 -4181 -4184 -4185 -4242 -4338 -4339 -4340 -4341 -4342 0
4148 -4180 -4181 -4184 -4185 -4242 -4338 -4339 -4340 -4341 -4342 0
4145 -4180 -4181 -4184 -4185 -4242 -4338 -4339 -4340 -4341 -4342 0
4144 -4180 -4181 -4184 -4185 -4242 -4338 -4339 -4340 -4341 -4342 0
3092 3162 3551 -4343 0
3551 -3092 -3162 -4343 0
3092 -3551 -3162 -4343 0
3162 -3551 -3092 -4343 0
4343 -3551 -3092 -3162 0
3092 3162 -3551 4343 0
3162 3551 -3092 4343 0
3092 3551 -3162 4343 0
3212 4342 4343 -4344 0
-4342 4343 -3212 -4344 0
3212 -4342 -4343 -4344 0
4342 -4343 -3212 -4344 0
-4342 -4343 -3212 4344 0
3212 4342 -4343 4344 0
4342 4343 -3212 4344 0
3212 -4342 4343 4344 0
3289 3311 -3345 3374 4144 4145 4146 4147 -4148 4149 -4150 -4151 -4152 4153 -4154 4155 -4156 -4157 -4158 -4159 4345 0
4285 4345 0
4195 4345 0
4227 4345 0
4190 4345 0
4181 4345 0
4180 4345 0
4341 4345 0
4340 4345 0
-3374 -4180 -4181 -4190 -4195 -4227 -4285 -4340 -4341 -4345 0
3345 -4180 -4181 -4190 -4195 -4227 -4285 -4340 -4341 -4345 0
-3311 -4180 -4181 -4190 -4195 -4227 -4285 -4340 -4341 -4345 0
-3289 -4180 -4181 -4190 -4195 -4227 -4285 -4340 -4341 -4345 0
4159 -4180 -4181 -4190 -4195 -4227 -4285 -4340 -4341 -4345 0
4158 -4180 -4181 -4190 -4195 -4227 -4285 -4340 -4341 -4345 0
4157 -4180 -4181 -4190 -4195 -4227 -4285 -4340 -4341 -4345 0
4156 -4180 -4181 -4190 -4195 -4227 -4285 -4340 -4341 -4345 0
-4146 -4180 -4181 -4190 -4195 -4227 -4285 -4340 -4341 -4345 0
-4155 -4180 -4181 -4190 -4195 -4227 -4285 -4340 -4341 -4345 0
4154 -4180 -4181 -4190 -4195 -4227 -4285 -4340 -4341 -4345 0
-4153 -4180 -4181 -4190 -4195 -4227 -4285 -4340 -4341 -4345 0
4152 -4180 -4181 -4190 -4195 -4227 -4285 -4340 -4341 -4345 0
-4144 -4180 -4181 -4190 -4195 -4227 -4285 -4340 -4341 -4345 0
4151 -4180 -4181 -4190 -4195 -4227 -4285 -4340 -4341 -4345 0
4150 -4180 -4181 -4190 -4195 -4227 -4285 -4340 -4341 -4345 0
-4147 -4180 -4181 -4190 -4195 -4227 -4285 -4340 -4341 -4345 0
-4145 -4180 -4181 -4190 -4195 -4227 -4285 -4340 -4341 -4345 0
-4149 -4180 -4181 -4190 -4195 -4227 -4285 -4340 -4341 -4345 0
4148 -4180 -4181 -4190 -4195 -4227 -4285 -4340 -4341 -4345 0
3584 -3042 -4346 0
3042 -3584 -4346 0
4346 -3584 -3042 0
3042 3584 4346 0
3109 3159 4346 -4347 0
4346 -3109 -3159 -4347 0
3109 -4346 -3159 -4347 0
3159 -4346 -3109 -4347 0
4347 -4346 -3109 -3159 0
3109 3159 -4346 4347 0
3159 4346 -3109 4347 0
3109 4346 -3159 4347 0
3209 4345 4347 -4348 0
-4345 4347 -3209 -4348 0
3209 -4345 -4347 -4348 0
4345 -4347 -3209 -4348 0
-4345 -4347 -3209 4348 0
3209 4345 -4347 4348 0
4345 4347 -3209 4348 0
3209 -4345 4347 4348 0
-4344 4348 -4349 0
4344 -4348 -4349 0
-4344 -4348 4349 0
4344 4348 4349 0
4329 4337 4349 -4350 0
-4329 -4337 4349 -4350 0
-4329 4337 -4349 -4350 0
4329 -4337 -4349 -4350 0
-4329 -4337 -4349 4350 0
4329 4337 -4349 4350 0
4329 -4337 4349 4350 0
-4329 4337 4349 4350 0
-3374 4351 0
-3345 4351 0
-3311 4351 0
3289 4351 0
4159 4351 0
4158 4351 0
-4157 4351 0
4156 4351 0
-4146 4351 0
4155 4351 0
4154 4351 0
-4153 4351 0
4152 4351 0
-4144 4351 0
-4151 4351 0
4150 4351 0
-4147 4351 0
-4145 4351 0
4149 4351 0
4148 4351 0
-3289 3311 3345 3374 4144 4145 4146 4147 -4148 -4149 -4150 4151 -4152 4153 -4154 -4155 -4156 4157 -4158 -4159 -4351 0
3289 3311 -3345 3374 4144 4145 4146 4147 -4148 4149 -4150 -4151 -4152 4153 -4154 4155 -4156 -4157 -4158 -4159 4352 0
4351 4352 0
4143 4352 0
4195 4352 0
4142 4352 0
4333 4352 0
4139 4352 0
4190 4352 0
4136 4352 0
-3374 -4136 -4139 -4142 -4143 -4190 -4195 -4333 -4351 -4352 0
3345 -4136 -4139 -4142 -4143 -4190 -4195 -4333 -4351 -4352 0
-3311 -4136 -4139 -4142 -4143 -4190 -4195 -4333 -4351 -4352 0
-3289 -4136 -4139 -4142 -4143 -4190 -4195 -4333 -4351 -4352 0
-4136 -4139 -4142 -4143 4159 -4190 -4195 -4333 -4351 -4352 0
-4136 -4139 -4142 -4143 4158 -4190 -4195 -4333 -4351 -4352 0
-4136 -4139 -4142 -4143 4157 -4190 -4195 -4333 -4351 -4352 0
-4136 -4139 -4142 -4143 4156 -4190 -4195 -4333 -4351 -4352 0
-4136 -4139 -4142 -4143 -4146 -4190 -4195 -4333 -4351 -4352 0
-4136 -4139 -4142 -4143 -4155 -4190 -4195 -4333 -4351 -4352 0
-4136 -4139 -4142 -4143 4154 -4190 -4195 -4333 -4351 -4352 0
-4136 -4139 -4142 -4143 -4153 -4190 -4195 -4333 -4351 -4352 0
-4136 -4139 -4142 -4143 4152 -4190 -4195 -4333 -4351 -4352 0
-4136 -4139 -4142 -4143 -4144 -4190 -4195 -4333 -4351 -4352 0
-4136 -4139 -4142 -4143 4151 -4190 -4195 -4333 -4351 -4352 0
-4136 -4139 -4142 -4143 4150 -4190 -4195 -4333 -4351 -4352 0
-4136 -4139 -4142 -4143 -4147 -4190 -4195 -4333 -4351 -4352 0
-4136 -4139 -4142 -4143 -4145 -4190 -4195 -4333 -4351 -4352 0
-4136 -4139 -4142 -4143 -4149 -4190 -4195 -4333 -4351 -4352 0
-4136 -4139 -4142 -4143 4148 -4190 -4195 -4333 -4351 -4352 0
2992 3062 3694 -4353 0
3694 -2992 -3062 -4353 0
2992 -3694 -3062 -4353 0
3062 -3694 -2992 -4353 0
4353 -3694 -2992 -3062 0
2992 3062 -3694 4353 0
3062 3694 -2992 4353 0
2992 3694 -3062 4353 0
3112 3165 4353 -4354 0
4353 -3112 -3165 -4354 0
3112 -4353 -3165 -4354 0
3165 -4353 -3112 -4354 0
4354 -4353 -3112 -3165 0
3112 3165 -4353 4354 0
3165 4353 -3112 4354 0
3112 4353 -3165 4354 0
3215 4352 4354 -4355 0
-4352 4354 -3215 -4355 0
3215 -4352 -4354 -4355 0
4352 -4354 -3215 -4355 0
-4352 -4354 -3215 4355 0
3215 4352 -4354 4355 0
4352 4354 -3215 4355 0
3215 -4352 4354 4355 0
-3374 4356 0
-3345 4356 0
-3311 4356 0
3289 4356 0
4159 4356 0
4158 4356 0
-4157 4356 0
-4156 4356 0
-4146 4356 0
4155 4356 0
4154 4356 0
4153 4356 0
4152 4356 0
-4144 4356 0
-4151 4356 0
4150 4356 0
-4145 4356 0
4149 4356 0
-4148 4356 0
4147 4356 0
-3289 3311 3345 3374 4144 4145 4146 -4147 4148 -4149 -4150 4151 -4152 -4153 -4154 -4155 4156 4157 -4158 -4159 -4356 0
-3374 4357 0
-3345 4357 0
-3311 4357 0
3289 4357 0
4159 4357 0
4158 4357 0
4157 4357 0
-4156 4357 0
-4146 4357 0
4155 4357 0
4154 4357 0
4153 4357 0
4152 4357 0
-4144 4357 0
-4151 4357 0
4150 4357 0
-4145 4357 0
4149 4357 0
-4148 4357 0
4147 4357 0
-3289 3311 3345 3374 4144 4145 4146 -4147 4148 -4149 -4150 4151 -4152 -4153 -4154 -4155 4156 -4157 -4158 -4159 -4357 0
3289 3311 -3345 3374 4144 4145 4146 4147 -4148 4149 -4150 -4151 -4152 4153 -4154 4155 -4156 -4157 -4158 -4159 4358 0
4193 4358 0
4192 4358 0
4187 4358 0
4186 4358 0
4357 4358 0
4356 4358 0
-3374 -4186 -4187 -4192 -4193 -4356 -4357 -4358 0
3345 -4186 -4187 -4192 -4193 -4356 -4357 -4358 0
-3311 -4186 -4187 -4192 -4193 -4356 -4357 -4358 0
-3289 -4186 -4187 -4192 -4193 -4356 -4357 -4358 0
4159 -4186 -4187 -4192 -4193 -4356 -4357 -4358 0
4158 -4186 -4187 -4192 -4193 -4356 -4357 -4358 0
4157 -4186 -4187 -4192 -4193 -4356 -4357 -4358 0
4156 -4186 -4187 -4192 -4193 -4356 -4357 -4358 0
-4146 -4186 -4187 -4192 -4193 -4356 -4357 -4358 0
-4155 -4186 -4187 -4192 -4193 -4356 -4357 -4358 0
4154 -4186 -4187 -4192 -4193 -4356 -4357 -4358 0
-4153 -4186 -4187 -4192 -4193 -4356 -4357 -4358 0
4152 -4186 -4187 -4192 -4193 -4356 -4357 -4358 0
-4144 -4186 -4187 -4192 -4193 -4356 -4357 -4358 0
4151 -4186 -4187 -4192 -4193 -4356 -4357 -4358 0
4150 -4186 -4187 -4192 -4193 -4356 -4357 -4358 0
-4147 -4186 -4187 -4192 -4193 -4356 -4357 -4358 0
-4145 -4186 -4187 -4192 -4193 -4356 -4357 -4358 0
-4149 -4186 -4187 -4192 -4193 -4356 -4357 -4358 0
4148 -4186 -4187 -4192 -4193 -4356 -4357 -4358 0
3657 -2942 -4359 0
2942 -3657 -4359 0
4359 -3657 -2942 0
2942 3657 4359 0
3006 3056 4359 -4360 0
4359 -3006 -3056 -4360 0
3006 -4359 -3056 -4360 0
3056 -4359 -3006 -4360 0
4360 -4359 -3006 -3056 0
3006 3056 -4359 4360 0
3056 4359 -3006 4360 0
3006 4359 -3056 4360 0
3106 3156 4360 -4361 0
4360 -3106 -3156 -4361 0
3106 -4360 -3156 -4361 0
3156 -4360 -3106 -4361 0
4361 -4360 -3106 -3156 0
3106 3156 -4360 4361 0
3156 4360 -3106 4361 0
3106 4360 -3156 4361 0
3206 4358 4361 -4362 0
-4358 4361 -3206 -4362 0
3206 -4358 -4361 -4362 0
4358 -4361 -3206 -4362 0
-4358 -4361 -3206 4362 0
3206 4358 -4361 4362 0
4358 4361 -3206 4362 0
3206 -4358 4361 4362 0
-4355 4362 -4363 0
4355 -4362 -4363 0
-4355 -4362 4363 0
4355 4362 4363 0
3289 -3311 3345 3374 -4144 -4145 -4146 -4147 4148 4149 -4150 4151 -4152 -4153 -4154 4155 4156 -4157 -4158 -4159 4364 0
4285 4364 0
4227 4364 0
4138 4364 0
-3374 -4138 -4227 -4285 -4364 0
-3345 -4138 -4227 -4285 -4364 0
3311 -4138 -4227 -4285 -4364 0
-3289 -4138 -4227 -4285 -4364 0
-4138 4159 -4227 -4285 -4364 0
-4138 4158 -4227 -4285 -4364 0
-4138 4157 -4227 -4285 -4364 0
-4138 -4156 -4227 -4285 -4364 0
-4138 -4155 -4227 -4285 -4364 0
-4138 4154 -4227 -4285 -4364 0
-4138 4153 -4227 -4285 -4364 0
-4138 4152 -4227 -4285 -4364 0
-4138 -4151 -4227 -4285 -4364 0
-4138 4150 -4227 -4285 -4364 0
-4138 -4149 -4227 -4285 -4364 0
-4138 -4148 -4227 -4285 -4364 0
-4138 4147 -4227 -4285 -4364 0
-4138 4146 -4227 -4285 -4364 0
-4138 4145 -4227 -4285 -4364 0
-4138 4144 -4227 -4285 -4364 0
2842 2903 3722 -4365 0
3722 -2842 -2903 -4365 0
2842 -3722 -2903 -4365 0
2903 -3722 -2842 -4365 0
4365 -3722 -2842 -2903 0
2842 2903 -3722 4365 0
2903 3722 -2842 4365 0
2842 3722 -2903 4365 0
2953 3003 4365 -4366 0
4365 -2953 -3003 -4366 0
2953 -4365 -3003 -4366 0
3003 -4365 -2953 -4366 0
4366 -4365 -2953 -3003 0
2953 3003 -4365 4366 0
3003 4365 -2953 4366 0
2953 4365 -3003 4366 0
3053 3103 4366 -4367 0
4366 -3053 -3103 -4367 0
3053 -4366 -3103 -4367 0
3103 -4366 -3053 -4367 0
4367 -4366 -3053 -3103 0
3053 3103 -4366 4367 0
3103 4366 -3053 4367 0
3053 4366 -3103 4367 0
3153 3203 4367 -4368 0
4367 -3153 -3203 -4368 0
3153 -4367 -3203 -4368 0
3203 -4367 -3153 -4368 0
4368 -4367 -3153 -3203 0
3153 3203 -4367 4368 0
3203 4367 -3153 4368 0
3153 4367 -3203 4368 0
4344 4364 4368 -4369 0
-4344 -4364 4368 -4369 0
-4344 4364 -4368 -4369 0
4344 -4364 -4368 -4369 0
-4344 -4364 -4368 4369 0
4344 4364 -4368 4369 0
4344 -4364 4368 4369 0
-4344 4364 4368 4369 0
-3374 4370 0
-3345 4370 0
3311 4370 0
-3289 4370 0
4159 4370 0
-4158 4370 0
4157 4370 0
-4156 4370 0
-4146 4370 0
-4155 4370 0
4154 4370 0
4153 4370 0
4152 4370 0
-4144 4370 0
-4151 4370 0
4150 4370 0
-4145 4370 0
-4149 4370 0
-4148 4370 0
4147 4370 0
3289 -3311 3345 3374 4144 4145 4146 -4147 4148 4149 -4150 4151 -4152 -4153 -4154 4155 4156 -4157 4158 -4159 -4370 0
-3374 4371 0
-3345 4371 0
3311 4371 0
-3289 4371 0
4159 4371 0
4158 4371 0
4157 4371 0
-4156 4371 0
-4146 4371 0
-4155 4371 0
4154 4371 0
4153 4371 0
4152 4371 0
-4144 4371 0
-4151 4371 0
4150 4371 0
-4145 4371 0
-4149 4371 0
-4148 4371 0
4147 4371 0
3289 -3311 3345 3374 4144 4145 4146 -4147 4148 4149 -4150 4151 -4152 -4153 -4154 4155 4156 -4157 -4158 -4159 -4371 0
3289 -3311 3345 3374 -4144 -4145 -4146 -4147 4148 4149 -4150 4151 -4152 -4153 -4154 4155 4156 -4157 -4158 -4159 4372 0
4285 4372 0
4228 4372 0
4227 4372 0
4189 4372 0
4138 4372 0
4137 4372 0
4263 4372 0
4262 4372 0
4371 4372 0
4370 4372 0
-3374 -4137 -4138 -4189 -4227 -4228 -4262 -4263 -4285 -4370 -4371 -4372 0
-3345 -4137 -4138 -4189 -4227 -4228 -4262 -4263 -4285 -4370 -4371 -4372 0
3311 -4137 -4138 -4189 -4227 -4228 -4262 -4263 -4285 -4370 -4371 -4372 0
-3289 -4137 -4138 -4189 -4227 -4228 -4262 -4263 -4285 -4370 -4371 -4372 0
-4137 -4138 4159 -4189 -4227 -4228 -4262 -4263 -4285 -4370 -4371 -4372 0
-4137 -4138 4158 -4189 -4227 -4228 -4262 -4263 -4285 -4370 -4371 -4372 0
-4137 -4138 4157 -4189 -4227 -4228 -4262 -4263 -4285 -4370 -4371 -4372 0
-4137 -4138 -4156 -4189 -4227 -4228 -4262 -4263 -4285 -4370 -4371 -4372 0
-4137 -4138 -4155 -4189 -4227 -4228 -4262 -4263 -4285 -4370 -4371 -4372 0
-4137 -4138 4154 -4189 -4227 -4228 -4262 -4263 -4285 -4370 -4371 -4372 0
-4137 -4138 4153 -4189 -4227 -4228 -4262 -4263 -4285 -4370 -4371 -4372 0
-4137 -4138 4152 -4189 -4227 -4228 -4262 -4263 -4285 -4370 -4371 -4372 0
-4137 -4138 -4151 -4189 -4227 -4228 -4262 -4263 -4285 -4370 -4371 -4372 0
-4137 -4138 4150 -4189 -4227 -4228 -4262 -4263 -4285 -4370 -4371 -4372 0
-4137 -4138 -4149 -4189 -4227 -4228 -4262 -4263 -4285 -4370 -4371 -4372 0
-4137 -4138 -4148 -4189 -4227 -4228 -4262 -4263 -4285 -4370 -4371 -4372 0
-4137 -4138 4147 -4189 -4227 -4228 -4262 -4263 -4285 -4370 -4371 -4372 0
-4137 -4138 4146 -4189 -4227 -4228 -4262 -4263 -4285 -4370 -4371 -4372 0
-4137 -4138 4145 -4189 -4227 -4228 -4262 -4263 -4285 -4370 -4371 -4372 0
-4137 -4138 4144 -4189 -4227 -4228 -4262 -4263 -4285 -4370 -4371 -4372 0
3782 -2642 -4373 0
2642 -3782 -4373 0
4373 -3782 -2642 0
2642 3782 4373 0
2697 2747 4373 -4374 0
4373 -2697 -2747 -4374 0
2697 -4373 -2747 -4374 0
2747 -4373 -2697 -4374 0
4374 -4373 -2697 -2747 0
2697 2747 -4373 4374 0
2747 4373 -2697 4374 0
2697 4373 -2747 4374 0
2797 2847 4374 -4375 0
4374 -2797 -2847 -4375 0
2797 -4374 -2847 -4375 0
2847 -4374 -2797 -4375 0
4375 -4374 -2797 -2847 0
2797 2847 -4374 4375 0
2847 4374 -2797 4375 0
2797 4374 -2847 4375 0
2897 2947 4375 -4376 0
4375 -2897 -2947 -4376 0
2897 -4375 -2947 -4376 0
2947 -4375 -2897 -4376 0
4376 -4375 -2897 -2947 0
2897 2947 -4375 4376 0
2947 4375 -2897 4376 0
2897 4375 -2947 4376 0
2997 3047 4376 -4377 0
4376 -2997 -3047 -4377 0
2997 -4376 -3047 -4377 0
3047 -4376 -2997 -4377 0
4377 -4376 -2997 -3047 0
2997 3047 -4376 4377 0
3047 4376 -2997 4377 0
2997 4376 -3047 4377 0
3097 3147 4377 -4378 0
4377 -3097 -3147 -4378 0
3097 -4377 -3147 -4378 0
3147 -4377 -3097 -4378 0
4378 -4377 -3097 -3147 0
3097 3147 -4377 4378 0
3147 4377 -3097 4378 0
3097 4377 -3147 4378 0
3197 4372 4378 -4379 0
-4372 4378 -3197 -4379 0
3197 -4372 -4378 -4379 0
4372 -4378 -3197 -4379 0
-4372 -4378 -3197 4379 0
3197 4372 -4378 4379 0
4372 4378 -3197 4379 0
3197 -4372 4378 4379 0
3760 -2692 -4380 0
2692 -3760 -4380 0
4380 -3760 -2692 0
2692 3760 4380 0
2750 2800 4380 -4381 0
4380 -2750 -2800 -4381 0
2750 -4380 -2800 -4381 0
2800 -4380 -2750 -4381 0
4381 -4380 -2750 -2800 0
2750 2800 -4380 4381 0
2800 4380 -2750 4381 0
2750 4380 -2800 4381 0
2850 2900 4381 -4382 0
4381 -2850 -2900 -4382 0
2850 -4381 -2900 -4382 0
2900 -4381 -2850 -4382 0
4382 -4381 -2850 -2900 0
2850 2900 -4381 4382 0
2900 4381 -2850 4382 0
2850 4381 -2900 4382 0
2950 3000 4382 -4383 0
4382 -2950 -3000 -4383 0
2950 -4382 -3000 -4383 0
3000 -4382 -2950 -4383 0
4383 -4382 -2950 -3000 0
2950 3000 -4382 4383 0
3000 4382 -2950 4383 0
2950 4382 -3000 4383 0
3050 3100 4383 -4384 0
4383 -3050 -3100 -4384 0
3050 -4383 -3100 -4384 0
3100 -4383 -3050 -4384 0
4384 -4383 -3050 -3100 0
3050 3100 -4383 4384 0
3100 4383 -3050 4384 0
3050 4383 -3100 4384 0
3150 3200 4384 -4385 0
4384 -3150 -3200 -4385 0
3150 -4384 -3200 -4385 0
3200 -4384 -3150 -4385 0
4385 -4384 -3150 -3200 0
3150 3200 -4384 4385 0
3200 4384 -3150 4385 0
3150 4384 -3200 4385 0
4196 4379 4385 -4386 0
4196 -4379 -4385 -4386 0
-4196 -4379 4385 -4386 0
-4196 4379 -4385 -4386 0
-4196 -4379 -4385 4386 0
-4196 4379 4385 4386 0
4196 4379 -4385 4386 0
4196 -4379 4385 4386 0
4348 4362 4386 -4387 0
-4348 -4362 4386 -4387 0
-4348 4362 -4386 -4387 0
4348 -4362 -4386 -4387 0
-4348 -4362 -4386 4387 0
4348 4362 -4386 4387 0
4348 -4362 4386 4387 0
-4348 4362 4386 4387 0
-3374 4388 0
3345 4388 0
-3311 4388 0
-3289 4388 0
4159 4388 0
4158 4388 0
4157 4388 0
4156 4388 0
-4146 4388 0
-4155 4388 0
4154 4388 0
-4153 4388 0
4152 4388 0
-4144 4388 0
-4151 4388 0
-4150 4388 0
-4147 4388 0
-4145 4388 0
-4149 4388 0
-4148 4388 0
3289 3311 -3345 3374 4144 4145 4146 4147 4148 4149 4150 4151 -4152 4153 -4154 4155 -4156 -4157 -4158 -4159 -4388 0
-3374 4389 0
3345 4389 0
-3311 4389 0
-3289 4389 0
4159 4389 0
4158 4389 0
4157 4389 0
4156 4389 0
-4146 4389 0
-4155 4389 0
4154 4389 0
4153 4389 0
4152 4389 0
-4144 4389 0
-4151 4389 0
-4150 4389 0
-4147 4389 0
-4145 4389 0
-4149 4389 0
-4148 4389 0
3289 3311 -3345 3374 4144 4145 4146 4147 4148 4149 4150 4151 -4152 -4153 -4154 4155 -4156 -4157 -4158 -4159 -4389 0
3289 3311 -3345 3374 4144 4145 4146 4147 -4148 4149 -4150 -4151 -4152 4153 -4154 4155 -4156 -4157 -4158 -4159 4390 0
4249 4390 0
4334 4390 0
4248 4390 0
4330 4390 0
4138 4390 0
4137 4390 0
4135 4390 0
4247 4390 0
4246 4390 0
4245 4390 0
4244 4390 0
4243 4390 0
4242 4390 0
4389 4390 0
4388 4390 0
-3374 -4135 -4137 -4138 -4242 -4243 -4244 -4245 -4246 -4247 -4248 -4249 -4330 -4334 -4388 -4389 -4390 0
3345 -4135 -4137 -4138 -4242 -4243 -4244 -4245 -4246 -4247 -4248 -4249 -4330 -4334 -4388 -4389 -4390 0
-3311 -4135 -4137 -4138 -4242 -4243 -4244 -4245 -4246 -4247 -4248 -4249 -4330 -4334 -4388 -4389 -4390 0
-3289 -4135 -4137 -4138 -4242 -4243 -4244 -4245 -4246 -4247 -4248 -4249 -4330 -4334 -4388 -4389 -4390 0
-4135 -4137 -4138 4159 -4242 -4243 -4244 -4245 -4246 -4247 -4248 -4249 -4330 -4334 -4388 -4389 -4390 0
-4135 -4137 -4138 4158 -4242 -4243 -4244 -4245 -4246 -4247 -4248 -4249 -4330 -4334 -4388 -4389 -4390 0
-4135 -4137 -4138 4157 -4242 -4243 -4244 -4245 -4246 -4247 -4248 -4249 -4330 -4334 -4388 -4389 -4390 0
-4135 -4137 -4138 4156 -4242 -4243 -4244 -4245 -4246 -4247 -4248 -4249 -4330 -4334 -4388 -4389 -4390 0
-4135 -4137 -4138 -4146 -4242 -4243 -4244 -4245 -4246 -4247 -4248 -4249 -4330 -4334 -4388 -4389 -4390 0
-4135 -4137 -4138 -4155 -4242 -4243 -4244 -4245 -4246 -4247 -4248 -4249 -4330 -4334 -4388 -4389 -4390 0
-4135 -4137 -4138 4154 -4242 -4243 -4244 -4245 -4246 -4247 -4248 -4249 -4330 -4334 -4388 -4389 -4390 0
-4135 -4137 -4138 -4153 -4242 -4243 -4244 -4245 -4246 -4247 -4248 -4249 -4330 -4334 -4388 -4389 -4390 0
-4135 -4137 -4138 4152 -4242 -4243 -4244 -4245 -4246 -4247 -4248 -4249 -4330 -4334 -4388 -4389 -4390 0
-4135 -4137 -4138 -4144 -4242 -4243 -4244 -4245 -4246 -4247 -4248 -4249 -4330 -4334 -4388 -4389 -4390 0
-4135 -4137 -4138 4151 -4242 -4243 -4244 -4245 -4246 -4247 -4248 -4249 -4330 -4334 -4388 -4389 -4390 0
-4135 -4137 -4138 4150 -4242 -4243 -4244 -4245 -4246 -4247 -4248 -4249 -4330 -4334 -4388 -4389 -4390 0
-4135 -4137 -4138 -4147 -4242 -4243 -4244 -4245 -4246 -4247 -4248 -4249 -4330 -4334 -4388 -4389 -4390 0
-4135 -4137 -4138 -4145 -4242 -4243 -4244 -4245 -4246 -4247 -4248 -4249 -4330 -4334 -4388 -4389 -4390 0
-4135 -4137 -4138 -4149 -4242 -4243 -4244 -4245 -4246 -4247 -4248 -4249 -4330 -4334 -4388 -4389 -4390 0
-4135 -4137 -4138 4148 -4242 -4243 -4244 -4245 -4246 -4247 -4248 -4249 -4330 -4334 -4388 -4389 -4390 0
4252 -3145 -4391 0
3145 -4252 -4391 0
4391 -4252 -3145 0
3145 4252 4391 0
2595 2669 3819 -4392 0
3819 -2595 -2669 -4392 0
2595 -3819 -2669 -4392 0
2669 -3819 -2595 -4392 0
4392 -3819 -2595 -2669 0
2595 2669 -3819 4392 0
2669 3819 -2595 4392 0
2595 3819 -2669 4392 0
2719 2769 4392 -4393 0
4392 -2719 -2769 -4393 0
2719 -4392 -2769 -4393 0
2769 -4392 -2719 -4393 0
4393 -4392 -2719 -2769 0
2719 2769 -4392 4393 0
2769 4392 -2719 4393 0
2719 4392 -2769 4393 0
2819 2869 4393 -4394 0
4393 -2819 -2869 -4394 0
2819 -4393 -2869 -4394 0
2869 -4393 -2819 -4394 0
4394 -4393 -2819 -2869 0
2819 2869 -4393 4394 0
2869 4393 -2819 4394 0
2819 4393 -2869 4394 0
2919 2969 4394 -4395 0
4394 -2919 -2969 -4395 0
2919 -4394 -2969 -4395 0
2969 -4394 -2919 -4395 0
4395 -4394 -2919 -2969 0
2919 2969 -4394 4395 0
2969 4394 -2919 4395 0
2919 4394 -2969 4395 0
3019 3069 4395 -4396 0
4395 -3019 -3069 -4396 0
3019 -4395 -3069 -4396 0
3069 -4395 -3019 -4396 0
4396 -4395 -3019 -3069 0
3019 3069 -4395 4396 0
3069 4395 -3019 4396 0
3019 4395 -3069 4396 0
3119 3169 4396 -4397 0
4396 -3119 -3169 -4397 0
3119 -4396 -3169 -4397 0
3169 -4396 -3119 -4397 0
4397 -4396 -3119 -3169 0
3119 3169 -4396 4397 0
3169 4396 -3119 4397 0
3119 4396 -3169 4397 0
3193 4391 4397 -4398 0
-4391 4397 -3193 -4398 0
4391 -4397 -3193 -4398 0
3193 -4391 -4397 -4398 0
-4391 -4397 -3193 4398 0
3193 4391 -4397 4398 0
3193 -4391 4397 4398 0
4391 4397 -3193 4398 0
4260 4390 4398 -4399 0
4260 -4390 -4398 -4399 0
-4260 -4390 4398 -4399 0
-4260 4390 -4398 -4399 0
-4260 -4390 -4398 4399 0
-4260 4390 4398 4399 0
4260 4390 -4398 4399 0
4260 -4390 4398 4399 0
-4298 4327 -4400 0
4298 -4327 -4400 0
-4298 -4327 4400 0
4298 4327 4400 0
4329 4337 4355 -4401 0
-4329 -4337 4355 -4401 0
-4329 4337 -4355 -4401 0
4329 -4337 -4355 -4401 0
-4329 -4337 -4355 4401 0
4329 4337 -4355 4401 0
4329 -4337 4355 4401 0
-4329 4337 4355 4401 0
-4261 -4313 -4328 4350 4363 4369 4387 4399 4400 4401 0
14 15 16 17 -13 0
13 -14 0
13 -15 0
13 -16 0
13 -17 0
19 20 -18 0
18 -19 0
18 -20 0
22 23 -21 0
21 -22 0
21 -23 0
25 26 -24 0
24 -25 0
24 -26 0
28 29 -27 0
27 -28 0
27 -29 0
31 32 -30 0
30 -31 0
30 -32 0
34 35 -33 0
33 -34 0
33 -35 0
37 38 -36 0
36 -37 0
36 -38 0
40 41 -39 0
39 -40 0
39 -41 0
43 44 -42 0
42 -43 0
42 -44 0
46 47 -45 0
45 -46 0
45 -47 0
49 50 -48 0
48 -49 0
48 -50 0
52 53 -51 0
51 -52 0
51 -53 0
55 56 -54 0
54 -55 0
54 -56 0
58 59 -57 0
57 -58 0
57 -59 0
61 62 -60 0
60 -61 0
60 -62 0
64 65 -63 0
63 -64 0
63 -65 0
67 68 -66 0
66 -67 0
66 -68 0
70 71 -69 0
69 -70 0
69 -71 0
73 74 -72 0
72 -73 0
72 -74 0
76 77 78 79 -75 0
75 -76 0
75 -77 0
75 -78 0
75 -79 0
81 82 -80 0
80 -81 0
80 -82 0
84 85 -83 0
83 -84 0
83 -85 0
87 88 -86 0
86 -87 0
86 -88 0
90 91 -89 0
89 -90 0
89 -91 0
93 94 -92 0
92 -93 0
92 -94 0
96 97 -95 0
95 -96 0
95 -97 0
99 100 -98 0
98 -99 0
98 -100 0
102 103 -101 0
101 -102 0
101 -103 0
105 106 -104 0
104 -105 0
104 -106 0
108 109 -107 0
107 -108 0
107 -109 0
111 112 -110 0
110 -111 0
110 -112 0
114 115 -113 0
113 -114 0
113 -115 0
117 118 -116 0
116 -117 0
116 -118 0
120 121 -119 0
119 -120 0
119 -121 0
123 124 -122 0
122 -123 0
122 -124 0
126 127 -125 0
125 -126 0
125 -127 0
129 130 -128 0
128 -129 0
128 -130 0
132 133 -131 0
131 -132 0
131 -133 0
135 136 -134 0
134 -135 0
134 -136 0
138 139 140 141 -137 0
137 -138 0
137 -139 0
137 -140 0
137 -141 0
143 144 -142 0
142 -143 0
142 -144 0
146 147 -145 0
145 -146 0
145 -147 0
149 150 -148 0
148 -149 0
148 -150 0
152 153 -151 0
151 -152 0
151 -153 0
155 156 -154 0
154 -155 0
154 -156 0
158 159 -157 0
157 -158 0
157 -159 0
161 162 -160 0
160 -161 0
160 -162 0
164 165 -163 0
163 -164 0
163 -165 0
167 168 -166 0
166 -167 0
166 -168 0
170 171 -169 0
169 -170 0
169 -171 0
173 174 -172 0
172 -173 0
172 -174 0
176 177 -175 0
175 -176 0
175 -177 0
179 180 -178 0
178 -179 0
178 -180 0
182 183 -181 0
181 -182 0
181 -183 0
185 186 -184 0
184 -185 0
184 -186 0
188 189 -187 0
187 -188 0
187 -189 0
191 192 -190 0
190 -191 0
190 -192 0
194 195 -193 0
193 -194 0
193 -195 0
197 198 -196 0
196 -197 0
196 -198 0
200 201 202 203 -199 0
199 -200 0
199 -201 0
199 -202 0
199 -203 0
205 206 -204 0
204 -205 0
204 -206 0
208 209 -207 0
207 -208 0
207 -209 0
211 212 -210 0
210 -211 0
210 -212 0
214 215 -213 0
213 -214 0
213 -215 0
217 218 -216 0
216 -217 0
216 -218 0
220 221 -219 0
219 -220 0
219 -221 0
223 224 -222 0
222 -223 0
222 -224 0
226 227 -225 0
225 -226 0
225 -227 0
229 230 -228 0
228 -229 0
228 -230 0
232 233 -231 0
231 -232 0
231 -233 0
235 236 -234 0
234 -235 0
234 -236 0
238 239 -237 0
237 -238 0
237 -239 0
241 242 -240 0
240 -241 0
240 -242 0
244 245 -243 0
243 -244 0
243 -245 0
247 248 -246 0
246 -247 0
246 -248 0
250 251 -249 0
249 -250 0
249 -251 0
253 254 -252 0
252 -253 0
252 -254 0
256 257 -255 0
255 -256 0
255 -257 0
259 260 -258 0
258 -259 0
258 -260 0
262 263 264 265 -261 0
261 -262 0
261 -263 0
261 -264 0
261 -265 0
267 268 -266 0
266 -267 0
266 -268 0
270 271 -269 0
269 -270 0
269 -271 0
273 274 -272 0
272 -273 0
272 -274 0
276 277 -275 0
275 -276 0
275 -277 0
279 280 -278 0
278 -279 0
278 -280 0
282 283 -281 0
281 -282 0
281 -283 0
285 286 -284 0
284 -285 0
284 -286 0
288 289 -287 0
287 -288 0
287 -289 0
291 292 -290 0
290 -291 0
290 -292 0
294 295 -293 0
293 -294 0
293 -295 0
297 298 -296 0
296 -297 0
296 -298 0
300 301 -299 0
299 -300 0
299 -301 0
303 304 -302 0
302 -303 0
302 -304 0
306 307 -305 0
305 -306 0
305 -307 0
309 310 -308 0
308 -309 0
308 -310 0
312 313 -311 0
311 -312 0
311 -313 0
315 316 -314 0
314 -315 0
314 -316 0
318 319 -317 0
317 -318 0
317 -319 0
321 322 -320 0
320 -321 0
320 -322 0
324 325 326 327 -323 0
323 -324 0
323 -325 0
323 -326 0
323 -327 0
329 330 -328 0
328 -329 0
328 -330 0
332 333 -331 0
331 -332 0
331 -333 0
335 336 -334 0
334 -335 0
334 -336 0
338 339 -337 0
337 -338 0
337 -339 0
341 342 -340 0
340 -341 0
340 -342 0
344 345 -343 0
343 -344 0
343 -345 0
347 348 -346 0
346 -347 0
346 -348 0
350 351 -349 0
349 -350 0
349 -351 0
353 354 -352 0
352 -353 0
352 -354 0
356 357 -355 0
355 -356 0
355 -357 0
359 360 -358 0
358 -359 0
358 -360 0
362 363 -361 0
361 -362 0
361 -363 0
365 366 -364 0
364 -365 0
364 -366 0
368 369 -367 0
367 -368 0
367 -369 0
371 372 -370 0
370 -371 0
370 -372 0
374 375 -373 0
373 -374 0
373 -375 0
377 378 -376 0
376 -377 0
376 -378 0
380 381 -379 0
379 -380 0
379 -381 0
383 384 -382 0
382 -383 0
382 -384 0
386 387 388 389 -385 0
385 -386 0
385 -387 0
385 -388 0
385 -389 0
391 392 -390 0
390 -391 0
390 -392 0
394 395 -393 0
393 -394 0
393 -395 0
397 398 -396 0
396 -397 0
396 -398 0
400 401 -399 0
399 -400 0
399 -401 0
403 404 -402 0
402 -403 0
402 -404 0
406 407 -405 0
405 -406 0
405 -407 0
409 410 -408 0
408 -409 0
408 -410 0
412 413 -411 0
411 -412 0
411 -413 0
415 416 -414 0
414 -415 0
414 -416 0
418 419 -417 0
417 -418 0
417 -419 0
421 422 -420 0
420 -421 0
420 -422 0
424 425 -423 0
423 -424 0
423 -425 0
427 428 -426 0
426 -427 0
426 -428 0
430 431 -429 0
429 -430 0
429 -431 0
433 434 -432 0
432 -433 0
432 -434 0
436 437 -435 0
435 -436 0
435 -437 0
439 440 -438 0
438 -439 0
438 -440 0
442 443 -441 0
441 -442 0
441 -443 0
445 446 -444 0
444 -445 0
444 -446 0
448 449 450 451 -447 0
447 -448 0
447 -449 0
447 -450 0
447 -451 0
453 454 -452 0
452 -453 0
452 -454 0
456 457 -455 0
455 -456 0
455 -457 0
459 460 -458 0
458 -459 0
458 -460 0
462 463 -461 0
461 -462 0
461 -463 0
465 466 -464 0
464 -465 0
464 -466 0
468 469 -467 0
467 -468 0
467 -469 0
471 472 -470 0
470 -471 0
470 -472 0
474 475 -473 0
473 -474 0
473 -475 0
477 478 -476 0
476 -477 0
476 -478 0
480 481 -479 0
479 -480 0
479 -481 0
483 484 -482 0
482 -483 0
482 -484 0
486 487 -485 0
485 -486 0
485 -487 0
489 490 -488 0
488 -489 0
488 -490 0
492 493 -491 0
491 -492 0
491 -493 0
495 496 -494 0
494 -495 0
494 -496 0
498 499 -497 0
497 -498 0
497 -499 0
501 502 -500 0
500 -501 0
500 -502 0
504 505 -503 0
503 -504 0
503 -505 0
507 508 -506 0
506 -507 0
506 -508 0
510 511 512 513 -509 0
509 -510 0
509 -511 0
509 -512 0
509 -513 0
515 516 -514 0
514 -515 0
514 -516 0
518 519 -517 0
517 -518 0
517 -519 0
521 522 -520 0
520 -521 0
520 -522 0
524 525 -523 0
523 -524 0
523 -525 0
527 528 -526 0
526 -527 0
526 -528 0
530 531 -529 0
529 -530 0
529 -531 0
533 534 -532 0
532 -533 0
532 -534 0
536 537 -535 0
535 -536 0
535 -537 0
539 540 -538 0
538 -539 0
538 -540 0
542 543 -541 0
541 -542 0
541 -543 0
545 546 -544 0
544 -545 0
544 -546 0
548 549 -547 0
547 -548 0
547 -549 0
551 552 -550 0
550 -551 0
550 -552 0
554 555 -553 0
553 -554 0
553 -555 0
557 558 -556 0
556 -557 0
556 -558 0
560 561 -559 0
559 -560 0
559 -561 0
563 564 -562 0
562 -563 0
562 -564 0
566 567 -565 0
565 -566 0
565 -567 0
569 570 -568 0
568 -569 0
568 -570 0
572 573 574 575 -571 0
571 -572 0
571 -573 0
571 -574 0
571 -575 0
577 578 -576 0
576 -577 0
576 -578 0
580 581 -579 0
579 -580 0
579 -581 0
583 584 -582 0
582 -583 0
582 -584 0
586 587 -585 0
585 -586 0
585 -587 0
589 590 -588 0
588 -589 0
588 -590 0
592 593 -591 0
591 -592 0
591 -593 0
595 596 -594 0
594 -595 0
594 -596 0
598 599 -597 0
597 -598 0
597 -599 0
601 602 -600 0
600 -601 0
600 -602 0
604 605 -603 0
603 -604 0
603 -605 0
607 608 -606 0
606 -607 0
606 -608 0
610 611 -609 0
609 -610 0
609 -611 0
613 614 -612 0
612 -613 0
612 -614 0
616 617 -615 0
615 -616 0
615 -617 0
619 620 -618 0
618 -619 0
618 -620 0
622 623 -621 0
621 -622 0
621 -623 0
625 626 -624 0
624 -625 0
624 -626 0
628 629 -627 0
627 -628 0
627 -629 0
631 632 -630 0
630 -631 0
630 -632 0
634 635 636 637 -633 0
633 -634 0
633 -635 0
633 -636 0
633 -637 0
639 640 -638 0
638 -639 0
638 -640 0
642 643 -641 0
641 -642 0
641 -643 0
645 646 -644 0
644 -645 0
644 -646 0
648 649 -647 0
647 -648 0
647 -649 0
651 652 -650 0
650 -651 0
650 -652 0
654 655 -653 0
653 -654 0
653 -655 0
657 658 -656 0
656 -657 0
656 -658 0
660 661 -659 0
659 -660 0
659 -661 0
663 664 -662 0
662 -663 0
662 -664 0
666 667 -665 0
665 -666 0
665 -667 0
669 670 -668 0
668 -669 0
668 -670 0
672 673 -671 0
671 -672 0
671 -673 0
675 676 -674 0
674 -675 0
674 -676 0
678 679 -677 0
677 -678 0
677 -679 0
681 682 -680 0
680 -681 0
680 -682 0
684 685 -683 0
683 -684 0
683 -685 0
687 688 -686 0
686 -687 0
686 -688 0
690 691 -689 0
689 -690 0
689 -691 0
693 694 -692 0
692 -693 0
692 -694 0
696 697 698 699 -695 0
695 -696 0
695 -697 0
695 -698 0
695 -699 0
701 702 -700 0
700 -701 0
700 -702 0
704 705 -703 0
703 -704 0
703 -705 0
707 708 -706 0
706 -707 0
706 -708 0
710 711 -709 0
709 -710 0
709 -711 0
713 714 -712 0
712 -713 0
712 -714 0
716 717 -715 0
715 -716 0
715 -717 0
719 720 -718 0
718 -719 0
718 -720 0
722 723 -721 0
721 -722 0
721 -723 0
725 726 -724 0
724 -725 0
724 -726 0
728 729 -727 0
727 -728 0
727 -729 0
731 732 -730 0
730 -731 0
730 -732 0
734 735 -733 0
733 -734 0
733 -735 0
737 738 -736 0
736 -737 0
736 -738 0
740 741 -739 0
739 -740 0
739 -741 0
743 744 -742 0
742 -743 0
742 -744 0
746 747 -745 0
745 -746 0
745 -747 0
749 750 -748 0
748 -749 0
748 -750 0
752 753 -751 0
751 -752 0
751 -753 0
755 756 -754 0
754 -755 0
754 -756 0
758 759 760 761 -757 0
757 -758 0
757 -759 0
757 -760 0
757 -761 0
763 764 -762 0
762 -763 0
762 -764 0
766 767 -765 0
765 -766 0
765 -767 0
769 770 -768 0
768 -769 0
768 -770 0
772 773 -771 0
771 -772 0
771 -773 0
775 776 -774 0
774 -775 0
774 -776 0
778 779 -777 0
777 -778 0
777 -779 0
781 782 -780 0
780 -781 0
780 -782 0
784 785 -783 0
783 -784 0
783 -785 0
787 788 -786 0
786 -787 0
786 -788 0
790 791 -789 0
789 -790 0
789 -791 0
793 794 -792 0
792 -793 0
792 -794 0
796 797 -795 0
795 -796 0
795 -797 0
799 800 -798 0
798 -799 0
798 -800 0
802 803 -801 0
801 -802 0
801 -803 0
805 806 -804 0
804 -805 0
804 -806 0
808 809 -807 0
807 -808 0
807 -809 0
811 812 -810 0
810 -811 0
810 -812 0
814 815 -813 0
813 -814 0
813 -815 0
817 818 -816 0
816 -817 0
816 -818 0
820 821 822 823 -819 0
819 -820 0
819 -821 0
819 -822 0
819 -823 0
825 826 -824 0
824 -825 0
824 -826 0
828 829 -827 0
827 -828 0
827 -829 0
831 832 -830 0
830 -831 0
830 -832 0
834 835 -833 0
833 -834 0
833 -835 0
837 838 -836 0
836 -837 0
836 -838 0
840 841 -839 0
839 -840 0
839 -841 0
843 844 -842 0
842 -843 0
842 -844 0
846 847 -845 0
845 -846 0
845 -847 0
849 850 -848 0
848 -849 0
848 -850 0
852 853 -851 0
851 -852 0
851 -853 0
855 856 -854 0
854 -855 0
854 -856 0
858 859 -857 0
857 -858 0
857 -859 0
861 862 -860 0
860 -861 0
860 -862 0
864 865 -863 0
863 -864 0
863 -865 0
867 868 -866 0
866 -867 0
866 -868 0
870 871 -869 0
869 -870 0
869 -871 0
873 874 -872 0
872 -873 0
872 -874 0
876 877 -875 0
875 -876 0
875 -877 0
879 880 -878 0
878 -879 0
878 -880 0
882 883 884 885 -881 0
881 -882 0
881 -883 0
881 -884 0
881 -885 0
887 888 -886 0
886 -887 0
886 -888 0
890 891 -889 0
889 -890 0
889 -891 0
893 894 -892 0
892 -893 0
892 -894 0
896 897 -895 0
895 -896 0
895 -897 0
899 900 -898 0
898 -899 0
898 -900 0
902 903 -901 0
901 -902 0
901 -903 0
905 906 -904 0
904 -905 0
904 -906 0
908 909 -907 0
907 -908 0
907 -909 0
911 912 -910 0
910 -911 0
910 -912 0
914 915 -913 0
913 -914 0
913 -915 0
917 918 -916 0
916 -917 0
916 -918 0
920 921 -919 0
919 -920 0
919 -921 0
923 924 -922 0
922 -923 0
922 -924 0
926 927 -925 0
925 -926 0
925 -927 0
929 930 -928 0
928 -929 0
928 -930 0
932 933 -931 0
931 -932 0
931 -933 0
935 936 -934 0
934 -935 0
934 -936 0
938 939 -937 0
937 -938 0
937 -939 0
941 942 -940 0
940 -941 0
940 -942 0
944 945 946 947 -943 0
943 -944 0
943 -945 0
943 -946 0
943 -947 0
949 950 -948 0
948 -949 0
948 -950 0
952 953 -951 0
951 -952 0
951 -953 0
955 956 -954 0
954 -955 0
954 -956 0
958 959 -957 0
957 -958 0
957 -959 0
961 962 -960 0
960 -961 0
960 -962 0
964 965 -963 0
963 -964 0
963 -965 0
967 968 -966 0
966 -967 0
966 -968 0
970 971 -969 0
969 -970 0
969 -971 0
973 974 -972 0
972 -973 0
972 -974 0
976 977 -975 0
975 -976 0
975 -977 0
979 980 -978 0
978 -979 0
978 -980 0
982 983 -981 0
981 -982 0
981 -983 0
985 986 -984 0
984 -985 0
984 -986 0
988 989 -987 0
987 -988 0
987 -989 0
991 992 -990 0
990 -991 0
990 -992 0
994 995 -993 0
993 -994 0
993 -995 0
997 998 -996 0
996 -997 0
996 -998 0
1000 1001 -999 0
999 -1000 0
999 -1001 0
1003 1004 -1002 0
1002 -1003 0
1002 -1004 0
1006 1007 1008 1009 -1005 0
1005 -1006 0
1005 -1007 0
1005 -1008 0
1005 -1009 0
1011 1012 -1010 0
1010 -1011 0
1010 -1012 0
1014 1015 -1013 0
1013 -1014 0
1013 -1015 0
1017 1018 -1016 0
1016 -1017 0
1016 -1018 0
1020 1021 -1019 0
1019 -1020 0
1019 -1021 0
1023 1024 -1022 0
1022 -1023 0
1022 -1024 0
1026 1027 -1025 0
1025 -1026 0
1025 -1027 0
1029 1030 -1028 0
1028 -1029 0
1028 -1030 0
1032 1033 -1031 0
1031 -1032 0
1031 -1033 0
1035 1036 -1034 0
1034 -1035 0
1034 -1036 0
1038 1039 -1037 0
1037 -1038 0
1037 -1039 0
1041 1042 -1040 0
1040 -1041 0
1040 -1042 0
1044 1045 -1043 0
1043 -1044 0
1043 -1045 0
1047 1048 -1046 0
1046 -1047 0
1046 -1048 0
1050 1051 -1049 0
1049 -1050 0
1049 -1051 0
1053 1054 -1052 0
1052 -1053 0
1052 -1054 0
1056 1057 -1055 0
1055 -1056 0
1055 -1057 0
1059 1060 -1058 0
1058 -1059 0
1058 -1060 0
1062 1063 -1061 0
1061 -1062 0
1061 -1063 0
1065 1066 -1064 0
1064 -1065 0
1064 -1066 0
1068 1069 1070 1071 -1067 0
1067 -1068 0
1067 -1069 0
1067 -1070 0
1067 -1071 0
1073 1074 -1072 0
1072 -1073 0
1072 -1074 0
1076 1077 -1075 0
1075 -1076 0
1075 -1077 0
1079 1080 -1078 0
1078 -1079 0
1078 -1080 0
1082 1083 -1081 0
1081 -1082 0
1081 -1083 0
1085 1086 -1084 0
1084 -1085 0
1084 -1086 0
1088 1089 -1087 0
1087 -1088 0
1087 -1089 0
1091 1092 -1090 0
1090 -1091 0
1090 -1092 0
1094 1095 -1093 0
1093 -1094 0
1093 -1095 0
1097 1098 -1096 0
1096 -1097 0
1096 -1098 0
1100 1101 -1099 0
1099 -1100 0
1099 -1101 0
1103 1104 -1102 0
1102 -1103 0
1102 -1104 0
1106 1107 -1105 0
1105 -1106 0
1105 -1107 0
1109 1110 -1108 0
1108 -1109 0
1108 -1110 0
1112 1113 -1111 0
1111 -1112 0
1111 -1113 0
1115 1116 -1114 0
1114 -1115 0
1114 -1116 0
1118 1119 -1117 0
1117 -1118 0
1117 -1119 0
1121 1122 -1120 0
1120 -1121 0
1120 -1122 0
1124 1125 -1123 0
1123 -1124 0
1123 -1125 0
1127 1128 -1126 0
1126 -1127 0
1126 -1128 0
1130 1131 1132 1133 -1129 0
1129 -1130 0
1129 -1131 0
1129 -1132 0
1129 -1133 0
1135 1136 -1134 0
1134 -1135 0
1134 -1136 0
1138 1139 -1137 0
1137 -1138 0
1137 -1139 0
1141 1142 -1140 0
1140 -1141 0
1140 -1142 0
1144 1145 -1143 0
1143 -1144 0
1143 -1145 0
1147 1148 -1146 0
1146 -1147 0
1146 -1148 0
1150 1151 -1149 0
1149 -1150 0
1149 -1151 0
1153 1154 -1152 0
1152 -1153 0
1152 -1154 0
1156 1157 -1155 0
1155 -1156 0
1155 -1157 0
1159 1160 -1158 0
1158 -1159 0
1158 -1160 0
1162 1163 -1161 0
1161 -1162 0
1161 -1163 0
1165 1166 -1164 0
1164 -1165 0
1164 -1166 0
1168 1169 -1167 0
1167 -1168 0
1167 -1169 0
1171 1172 -1170 0
1170 -1171 0
1170 -1172 0
1174 1175 -1173 0
1173 -1174 0
1173 -1175 0
1177 1178 -1176 0
1176 -1177 0
1176 -1178 0
1180 1181 -1179 0
1179 -1180 0
1179 -1181 0
1183 1184 -1182 0
1182 -1183 0
1182 -1184 0
1186 1187 -1185 0
1185 -1186 0
1185 -1187 0
1189 1190 -1188 0
1188 -1189 0
1188 -1190 0
1192 1193 1194 1195 -1191 0
1191 -1192 0
1191 -1193 0
1191 -1194 0
1191 -1195 0
1197 1198 -1196 0
1196 -1197 0
1196 -1198 0
1200 1201 -1199 0
1199 -1200 0
1199 -1201 0
1203 1204 -1202 0
1202 -1203 0
1202 -1204 0
1206 1207 -1205 0
1205 -1206 0
1205 -1207 0
1209 1210 -1208 0
1208 -1209 0
1208 -1210 0
1212 1213 -1211 0
1211 -1212 0
1211 -1213 0
1215 1216 -1214 0
1214 -1215 0
1214 -1216 0
1218 1219 -1217 0
1217 -1218 0
1217 -1219 0
1221 1222 -1220 0
1220 -1221 0
1220 -1222 0
1224 1225 -1223 0
1223 -1224 0
1223 -1225 0
1227 1228 -1226 0
1226 -1227 0
1226 -1228 0
1230 1231 -1229 0
1229 -1230 0
1229 -1231 0
1233 1234 -1232 0
1232 -1233 0
1232 -1234 0
1236 1237 -1235 0
1235 -1236 0
1235 -1237 0
1239 1240 -1238 0
1238 -1239 0
1238 -1240 0
1242 1243 -1241 0
1241 -1242 0
1241 -1243 0
1245 1246 -1244 0
1244 -1245 0
1244 -1246 0
1248 1249 -1247 0
1247 -1248 0
1247 -1249 0
1251 1252 -1250 0
1250 -1251 0
1250 -1252 0
1254 1255 1256 1257 -1253 0
1253 -1254 0
1253 -1255 0
1253 -1256 0
1253 -1257 0
1259 1260 -1258 0
1258 -1259 0
1258 -1260 0
1262 1263 -1261 0
1261 -1262 0
1261 -1263 0
1265 1266 -1264 0
1264 -1265 0
1264 -1266 0
1268 1269 -1267 0
1267 -1268 0
1267 -1269 0
1271 1272 -1270 0
1270 -1271 0
1270 -1272 0
1274 1275 -1273 0
1273 -1274 0
1273 -1275 0
1277 1278 -1276 0
1276 -1277 0
1276 -1278 0
1280 1281 -1279 0
1279 -1280 0
1279 -1281 0
1283 1284 -1282 0
1282 -1283 0
1282 -1284 0
1286 1287 -1285 0
1285 -1286 0
1285 -1287 0
1289 1290 -1288 0
1288 -1289 0
1288 -1290 0
1292 1293 -1291 0
1291 -1292 0
1291 -1293 0
1295 1296 -1294 0
1294 -1295 0
1294 -1296 0
1298 1299 -1297 0
1297 -1298 0
1297 -1299 0
1301 1302 -1300 0
1300 -1301 0
1300 -1302 0
1304 1305 -1303 0
1303 -1304 0
1303 -1305 0
1307 1308 -1306 0
1306 -1307 0
1306 -1308 0
1310 1311 -1309 0
1309 -1310 0
1309 -1311 0
1313 1314 -1312 0
1312 -1313 0
1312 -1314 0
1316 1317 1318 1319 -1315 0
1315 -1316 0
1315 -1317 0
1315 -1318 0
1315 -1319 0
1321 1322 -1320 0
1320 -1321 0
1320 -1322 0
1324 1325 -1323 0
1323 -1324 0
1323 -1325 0
1327 1328 -1326 0
1326 -1327 0
1326 -1328 0
1330 1331 -1329 0
1329 -1330 0
1329 -1331 0
1333 1334 -1332 0
1332 -1333 0
1332 -1334 0
1336 1337 -1335 0
1335 -1336 0
1335 -1337 0
1339 1340 -1338 0
1338 -1339 0
1338 -1340 0
1342 1343 -1341 0
1341 -1342 0
1341 -1343 0
1345 1346 -1344 0
1344 -1345 0
1344 -1346 0
1348 1349 -1347 0
1347 -1348 0
1347 -1349 0
1351 1352 -1350 0
1350 -1351 0
1350 -1352 0
1354 1355 -1353 0
1353 -1354 0
1353 -1355 0
1357 1358 -1356 0
1356 -1357 0
1356 -1358 0
1360 1361 -1359 0
1359 -1360 0
1359 -1361 0
1363 1364 -1362 0
1362 -1363 0
1362 -1364 0
1366 1367 -1365 0
1365 -1366 0
1365 -1367 0
1369 1370 -1368 0
1368 -1369 0
1368 -1370 0
1372 1373 -1371 0
1371 -1372 0
1371 -1373 0
1375 1376 -1374 0
1374 -1375 0
1374 -1376 0
1378 1379 1380 1381 -1377 0
1377 -1378 0
1377 -1379 0
1377 -1380 0
1377 -1381 0
1383 1384 -1382 0
1382 -1383 0
1382 -1384 0
1386 1387 -1385 0
1385 -1386 0
1385 -1387 0
1389 1390 -1388 0
1388 -1389 0
1388 -1390 0
1392 1393 -1391 0
1391 -1392 0
1391 -1393 0
1395 1396 -1394 0
1394 -1395 0
1394 -1396 0
1398 1399 -1397 0
1397 -1398 0
1397 -1399 0
1401 1402 -1400 0
1400 -1401 0
1400 -1402 0
1404 1405 -1403 0
1403 -1404 0
1403 -1405 0
1407 1408 -1406 0
1406 -1407 0
1406 -1408 0
1410 1411 -1409 0
1409 -1410 0
1409 -1411 0
1413 1414 -1412 0
1412 -1413 0
1412 -1414 0
1416 1417 -1415 0
1415 -1416 0
1415 -1417 0
1419 1420 -1418 0
1418 -1419 0
1418 -1420 0
1422 1423 -1421 0
1421 -1422 0
1421 -1423 0
1425 1426 -1424 0
1424 -1425 0
1424 -1426 0
1428 1429 -1427 0
1427 -1428 0
1427 -1429 0
1431 1432 -1430 0
1430 -1431 0
1430 -1432 0
1434 1435 -1433 0
1433 -1434 0
1433 -1435 0
1437 1438 -1436 0
1436 -1437 0
1436 -1438 0
1440 1441 1442 1443 -1439 0
1439 -1440 0
1439 -1441 0
1439 -1442 0
1439 -1443 0
1445 1446 -1444 0
1444 -1445 0
1444 -1446 0
1448 1449 -1447 0
1447 -1448 0
1447 -1449 0
1451 1452 -1450 0
1450 -1451 0
1450 -1452 0
1454 1455 -1453 0
1453 -1454 0
1453 -1455 0
1457 1458 -1456 0
1456 -1457 0
1456 -1458 0
1460 1461 -1459 0
1459 -1460 0
1459 -1461 0
1463 1464 -1462 0
1462 -1463 0
1462 -1464 0
1466 1467 -1465 0
1465 -1466 0
1465 -1467 0
1469 1470 -1468 0
1468 -1469 0
1468 -1470 0
1472 1473 -1471 0
1471 -1472 0
1471 -1473 0
1475 1476 -1474 0
1474 -1475 0
1474 -1476 0
1478 1479 -1477 0
1477 -1478 0
1477 -1479 0
1481 1482 -1480 0
1480 -1481 0
1480 -1482 0
1484 1485 -1483 0
1483 -1484 0
1483 -1485 0
1487 1488 -1486 0
1486 -1487 0
1486 -1488 0
1490 1491 -1489 0
1489 -1490 0
1489 -1491 0
1493 1494 -1492 0
1492 -1493 0
1492 -1494 0
1496 1497 -1495 0
1495 -1496 0
1495 -1497 0
1499 1500 -1498 0
1498 -1499 0
1498 -1500 0
1502 1503 1504 1505 -1501 0
1501 -1502 0
1501 -1503 0
1501 -1504 0
1501 -1505 0
1507 1508 -1506 0
1506 -1507 0
1506 -1508 0
1510 1511 -1509 0
1509 -1510 0
1509 -1511 0
1513 1514 -1512 0
1512 -1513 0
1512 -1514 0
1516 1517 -1515 0
1515 -1516 0
1515 -1517 0
1519 1520 -1518 0
1518 -1519 0
1518 -1520 0
1522 1523 -1521 0
1521 -1522 0
1521 -1523 0
1525 1526 -1524 0
1524 -1525 0
1524 -1526 0
1528 1529 -1527 0
1527 -1528 0
1527 -1529 0
1531 1532 -1530 0
1530 -1531 0
1530 -1532 0
1534 1535 -1533 0
1533 -1534 0
1533 -1535 0
1537 1538 -1536 0
1536 -1537 0
1536 -1538 0
1540 1541 -1539 0
1539 -1540 0
1539 -1541 0
1543 1544 -1542 0
1542 -1543 0
1542 -1544 0
1546 1547 -1545 0
1545 -1546 0
1545 -1547 0
1549 1550 -1548 0
1548 -1549 0
1548 -1550 0
1552 1553 -1551 0
1551 -1552 0
1551 -1553 0
1555 1556 -1554 0
1554 -1555 0
1554 -1556 0
1558 1559 -1557 0
1557 -1558 0
1557 -1559 0
1561 1562 -1560 0
1560 -1561 0
1560 -1562 0
1564 1565 1566 1567 -1563 0
1563 -1564 0
1563 -1565 0
1563 -1566 0
1563 -1567 0
1569 1570 -1568 0
1568 -1569 0
1568 -1570 0
1572 1573 -1571 0
1571 -1572 0
1571 -1573 0
1575 1576 -1574 0
1574 -1575 0
1574 -1576 0
1578 1579 -1577 0
1577 -1578 0
1577 -1579 0
1581 1582 -1580 0
1580 -1581 0
1580 -1582 0
1584 1585 -1583 0
1583 -1584 0
1583 -1585 0
1587 1588 -1586 0
1586 -1587 0
1586 -1588 0
1590 1591 -1589 0
1589 -1590 0
1589 -1591 0
1593 1594 -1592 0
1592 -1593 0
1592 -1594 0
1596 1597 -1595 0
1595 -1596 0
1595 -1597 0
1599 1600 -1598 0
1598 -1599 0
1598 -1600 0
1602 1603 -1601 0
1601 -1602 0
1601 -1603 0
1605 1606 -1604 0
1604 -1605 0
1604 -1606 0
1608 1609 -1607 0
1607 -1608 0
1607 -1609 0
1611 1612 -1610 0
1610 -1611 0
1610 -1612 0
1614 1615 -1613 0
1613 -1614 0
1613 -1615 0
1617 1618 -1616 0
1616 -1617 0
1616 -1618 0
1620 1621 -1619 0
1619 -1620 0
1619 -1621 0
1623 1624 -1622 0
1622 -1623 0
1622 -1624 0
1626 1627 1628 1629 -1625 0
1625 -1626 0
1625 -1627 0
1625 -1628 0
1625 -1629 0
1631 1632 -1630 0
1630 -1631 0
1630 -1632 0
1634 1635 -1633 0
1633 -1634 0
1633 -1635 0
1637 1638 -1636 0
1636 -1637 0
1636 -1638 0
1640 1641 -1639 0
1639 -1640 0
1639 -1641 0
1643 1644 -1642 0
1642 -1643 0
1642 -1644 0
1646 1647 -1645 0
1645 -1646 0
1645 -1647 0
1649 1650 -1648 0
1648 -1649 0
1648 -1650 0
1652 1653 -1651 0
1651 -1652 0
1651 -1653 0
1655 1656 -1654 0
1654 -1655 0
1654 -1656 0
1658 1659 -1657 0
1657 -1658 0
1657 -1659 0
1661 1662 -1660 0
1660 -1661 0
1660 -1662 0
1664 1665 -1663 0
1663 -1664 0
1663 -1665 0
1667 1668 -1666 0
1666 -1667 0
1666 -1668 0
1670 1671 -1669 0
1669 -1670 0
1669 -1671 0
1673 1674 -1672 0
1672 -1673 0
1672 -1674 0
1676 1677 -1675 0
1675 -1676 0
1675 -1677 0
1679 1680 -1678 0
1678 -1679 0
1678 -1680 0
1682 1683 -1681 0
1681 -1682 0
1681 -1683 0
1685 1686 -1684 0
1684 -1685 0
1684 -1686 0
1688 1689 1690 1691 -1687 0
1687 -1688 0
1687 -1689 0
1687 -1690 0
1687 -1691 0
1693 1694 -1692 0
1692 -1693 0
1692 -1694 0
1696 1697 -1695 0
1695 -1696 0
1695 -1697 0
1699 1700 -1698 0
1698 -1699 0
1698 -1700 0
1702 1703 -1701 0
1701 -1702 0
1701 -1703 0
1705 1706 -1704 0
1704 -1705 0
1704 -1706 0
1708 1709 -1707 0
1707 -1708 0
1707 -1709 0
1711 1712 -1710 0
1710 -1711 0
1710 -1712 0
1714 1715 -1713 0
1713 -1714 0
1713 -1715 0
1717 1718 -1716 0
1716 -1717 0
1716 -1718 0
1720 1721 -1719 0
1719 -1720 0
1719 -1721 0
1723 1724 -1722 0
1722 -1723 0
1722 -1724 0
1726 1727 -1725 0
1725 -1726 0
1725 -1727 0
1729 1730 -1728 0
1728 -1729 0
1728 -1730 0
1732 1733 -1731 0
1731 -1732 0
1731 -1733 0
1735 1736 -1734 0
1734 -1735 0
1734 -1736 0
1738 1739 -1737 0
1737 -1738 0
1737 -1739 0
1741 1742 -1740 0
1740 -1741 0
1740 -1742 0
1744 1745 -1743 0
1743 -1744 0
1743 -1745 0
1747 1748 -1746 0
1746 -1747 0
1746 -1748 0
1750 1751 1752 1753 -1749 0
1749 -1750 0
1749 -1751 0
1749 -1752 0
1749 -1753 0
1755 1756 -1754 0
1754 -1755 0
1754 -1756 0
1758 1759 -1757 0
1757 -1758 0
1757 -1759 0
1761 1762 -1760 0
1760 -1761 0
1760 -1762 0
1764 1765 -1763 0
1763 -1764 0
1763 -1765 0
1767 1768 -1766 0
1766 -1767 0
1766 -1768 0
1770 1771 -1769 0
1769 -1770 0
1769 -1771 0
1773 1774 -1772 0
1772 -1773 0
1772 -1774 0
1776 1777 -1775 0
1775 -1776 0
1775 -1777 0
1779 1780 -1778 0
1778 -1779 0
1778 -1780 0
1782 1783 -1781 0
1781 -1782 0
1781 -1783 0
1785 1786 -1784 0
1784 -1785 0
1784 -1786 0
1788 1789 -1787 0
1787 -1788 0
1787 -1789 0
1791 1792 -1790 0
1790 -1791 0
1790 -1792 0
1794 1795 -1793 0
1793 -1794 0
1793 -1795 0
1797 1798 -1796 0
1796 -1797 0
1796 -1798 0
1800 1801 -1799 0
1799 -1800 0
1799 -1801 0
1803 1804 -1802 0
1802 -1803 0
1802 -1804 0
1806 1807 -1805 0
1805 -1806 0
1805 -1807 0
1809 1810 -1808 0
1808 -1809 0
1808 -1810 0
1812 1813 1814 1815 -1811 0
1811 -1812 0
1811 -1813 0
1811 -1814 0
1811 -1815 0
1817 1818 -1816 0
1816 -1817 0
1816 -1818 0
1820 1821 -1819 0
1819 -1820 0
1819 -1821 0
1823 1824 -1822 0
1822 -1823 0
1822 -1824 0
1826 1827 -1825 0
1825 -1826 0
1825 -1827 0
1829 1830 -1828 0
1828 -1829 0
1828 -1830 0
1832 1833 -1831 0
1831 -1832 0
1831 -1833 0
1835 1836 -1834 0
1834 -1835 0
1834 -1836 0
1838 1839 -1837 0
1837 -1838 0
1837 -1839 0
1841 1842 -1840 0
1840 -1841 0
1840 -1842 0
1844 1845 -1843 0
1843 -1844 0
1843 -1845 0
1847 1848 -1846 0
1846 -1847 0
1846 -1848 0
1850 1851 -1849 0
1849 -1850 0
1849 -1851 0
1853 1854 -1852 0
1852 -1853 0
1852 -1854 0
1856 1857 -1855 0
1855 -1856 0
1855 -1857 0
1859 1860 -1858 0
1858 -1859 0
1858 -1860 0
1862 1863 -1861 0
1861 -1862 0
1861 -1863 0
1865 1866 -1864 0
1864 -1865 0
1864 -1866 0
1868 1869 -1867 0
1867 -1868 0
1867 -1869 0
1871 1872 -1870 0
1870 -1871 0
1870 -1872 0
1874 1875 1876 1877 -1873 0
1873 -1874 0
1873 -1875 0
1873 -1876 0
1873 -1877 0
1879 1880 -1878 0
1878 -1879 0
1878 -1880 0
1882 1883 -1881 0
1881 -1882 0
1881 -1883 0
1885 1886 -1884 0
1884 -1885 0
1884 -1886 0
1888 1889 -1887 0
1887 -1888 0
1887 -1889 0
1891 1892 -1890 0
1890 -1891 0
1890 -1892 0
1894 1895 -1893 0
1893 -1894 0
1893 -1895 0
1897 1898 -1896 0
1896 -1897 0
1896 -1898 0
1900 1901 -1899 0
1899 -1900 0
1899 -1901 0
1903 1904 -1902 0
1902 -1903 0
1902 -1904 0
1906 1907 -1905 0
1905 -1906 0
1905 -1907 0
1909 1910 -1908 0
1908 -1909 0
1908 -1910 0
1912 1913 -1911 0
1911 -1912 0
1911 -1913 0
1915 1916 -1914 0
1914 -1915 0
1914 -1916 0
1918 1919 -1917 0
1917 -1918 0
1917 -1919 0
1921 1922 -1920 0
1920 -1921 0
1920 -1922 0
1924 1925 -1923 0
1923 -1924 0
1923 -1925 0
1927 1928 -1926 0
1926 -1927 0
1926 -1928 0
1930 1931 -1929 0
1929 -1930 0
1929 -1931 0
1933 1934 -1932 0
1932 -1933 0
1932 -1934 0
1936 1937 1938 1939 -1935 0
1935 -1936 0
1935 -1937 0
1935 -1938 0
1935 -1939 0
1941 1942 -1940 0
1940 -1941 0
1940 -1942 0
1944 1945 -1943 0
1943 -1944 0
1943 -1945 0
1947 1948 -1946 0
1946 -1947 0
1946 -1948 0
1950 1951 -1949 0
1949 -1950 0
1949 -1951 0
1953 1954 -1952 0
1952 -1953 0
1952 -1954 0
1956 1957 -1955 0
1955 -1956 0
1955 -1957 0
1959 1960 -1958 0
1958 -1959 0
1958 -1960 0
1962 1963 -1961 0
1961 -1962 0
1961 -1963 0
1965 1966 -1964 0
1964 -1965 0
1964 -1966 0
1968 1969 -1967 0
1967 -1968 0
1967 -1969 0
1971 1972 -1970 0
1970 -1971 0
1970 -1972 0
1974 1975 -1973 0
1973 -1974 0
1973 -1975 0
1977 1978 -1976 0
1976 -1977 0
1976 -1978 0
1980 1981 -1979 0
1979 -1980 0
1979 -1981 0
1983 1984 -1982 0
1982 -1983 0
1982 -1984 0
1986 1987 -1985 0
1985 -1986 0
1985 -1987 0
1989 1990 -1988 0
1988 -1989 0
1988 -1990 0
1992 1993 -1991 0
1991 -1992 0
1991 -1993 0
1995 1996 -1994 0
1994 -1995 0
1994 -1996 0
1998 1999 -1997 0
1997 -1998 0
1997 -1999 0
2001 2002 -2000 0
2000 -2001 0
2000 -2002 0
2004 2005 -2003 0
2003 -2004 0
2003 -2005 0
2007 2008 -2006 0
2006 -2007 0
2006 -2008 0
2010 2011 -2009 0
2009 -2010 0
2009 -2011 0
2013 2014 -2012 0
2012 -2013 0
2012 -2014 0
2016 2017 -2015 0
2015 -2016 0
2015 -2017 0
2019 2020 -2018 0
2018 -2019 0
2018 -2020 0
2022 2023 -2021 0
2021 -2022 0
2021 -2023 0
2025 2026 -2024 0
2024 -2025 0
2024 -2026 0
2028 2029 -2027 0
2027 -2028 0
2027 -2029 0
2031 2032 -2030 0
2030 -2031 0
2030 -2032 0
2042 2043 2044 2045 -2041 0
2041 -2042 0
2041 -2043 0
2041 -2044 0
2041 -2045 0
2047 2048 -2046 0
2046 -2047 0
2046 -2048 0
2050 2051 -2049 0
2049 -2050 0
2049 -2051 0
2053 2054 -2052 0
2052 -2053 0
2052 -2054 0
2056 2057 -2055 0
2055 -2056 0
2055 -2057 0
2059 2060 -2058 0
2058 -2059 0
2058 -2060 0
2062 2063 -2061 0
2061 -2062 0
2061 -2063 0
2065 2066 -2064 0
2064 -2065 0
2064 -2066 0
2068 2069 -2067 0
2067 -2068 0
2067 -2069 0
2071 2072 -2070 0
2070 -2071 0
2070 -2072 0
2074 2075 -2073 0
2073 -2074 0
2073 -2075 0
2077 2078 -2076 0
2076 -2077 0
2076 -2078 0
2080 2081 -2079 0
2079 -2080 0
2079 -2081 0
2083 2084 -2082 0
2082 -2083 0
2082 -2084 0
2086 2087 -2085 0
2085 -2086 0
2085 -2087 0
2089 2090 -2088 0
2088 -2089 0
2088 -2090 0
2092 2093 2094 2095 -2091 0
2091 -2092 0
2091 -2093 0
2091 -2094 0
2091 -2095 0
2097 2098 -2096 0
2096 -2097 0
2096 -2098 0
2100 2101 -2099 0
2099 -2100 0
2099 -2101 0
2103 2104 -2102 0
2102 -2103 0
2102 -2104 0
2106 2107 -2105 0
2105 -2106 0
2105 -2107 0
2109 2110 -2108 0
2108 -2109 0
2108 -2110 0
2112 2113 -2111 0
2111 -2112 0
2111 -2113 0
2115 2116 -2114 0
2114 -2115 0
2114 -2116 0
2118 2119 -2117 0
2117 -2118 0
2117 -2119 0
2121 2122 -2120 0
2120 -2121 0
2120 -2122 0
2124 2125 -2123 0
2123 -2124 0
2123 -2125 0
2127 2128 -2126 0
2126 -2127 0
2126 -2128 0
2130 2131 -2129 0
2129 -2130 0
2129 -2131 0
2133 2134 -2132 0
2132 -2133 0
2132 -2134 0
2136 2137 -2135 0
2135 -2136 0
2135 -2137 0
2139 2140 -2138 0
2138 -2139 0
2138 -2140 0
2142 2143 2144 2145 -2141 0
2141 -2142 0
2141 -2143 0
2141 -2144 0
2141 -2145 0
2147 2148 -2146 0
2146 -2147 0
2146 -2148 0
2150 2151 -2149 0
2149 -2150 0
2149 -2151 0
2153 2154 -2152 0
2152 -2153 0
2152 -2154 0
2156 2157 -2155 0
2155 -2156 0
2155 -2157 0
2159 2160 -2158 0
2158 -2159 0
2158 -2160 0
2162 2163 -2161 0
2161 -2162 0
2161 -2163 0
2165 2166 -2164 0
2164 -2165 0
2164 -2166 0
2168 2169 -2167 0
2167 -2168 0
2167 -2169 0
2171 2172 -2170 0
2170 -2171 0
2170 -2172 0
2174 2175 -2173 0
2173 -2174 0
2173 -2175 0
2177 2178 -2176 0
2176 -2177 0
2176 -2178 0
2180 2181 -2179 0
2179 -2180 0
2179 -2181 0
2183 2184 -2182 0
2182 -2183 0
2182 -2184 0
2186 2187 -2185 0
2185 -2186 0
2185 -2187 0
2189 2190 -2188 0
2188 -2189 0
2188 -2190 0
2192 2193 2194 2195 -2191 0
2191 -2192 0
2191 -2193 0
2191 -2194 0
2191 -2195 0
2197 2198 -2196 0
2196 -2197 0
2196 -2198 0
2200 2201 -2199 0
2199 -2200 0
2199 -2201 0
2203 2204 -2202 0
2202 -2203 0
2202 -2204 0
2206 2207 -2205 0
2205 -2206 0
2205 -2207 0
2209 2210 -2208 0
2208 -2209 0
2208 -2210 0
2212 2213 -2211 0
2211 -2212 0
2211 -2213 0
2215 2216 -2214 0
2214 -2215 0
2214 -2216 0
2218 2219 -2217 0
2217 -2218 0
2217 -2219 0
2221 2222 -2220 0
2220 -2221 0
2220 -2222 0
2224 2225 -2223 0
2223 -2224 0
2223 -2225 0
2227 2228 -2226 0
2226 -2227 0
2226 -2228 0
2230 2231 -2229 0
2229 -2230 0
2229 -2231 0
2233 2234 -2232 0
2232 -2233 0
2232 -2234 0
2236 2237 -2235 0
2235 -2236 0
2235 -2237 0
2239 2240 -2238 0
2238 -2239 0
2238 -2240 0
2242 2243 2244 2245 -2241 0
2241 -2242 0
2241 -2243 0
2241 -2244 0
2241 -2245 0
2247 2248 -2246 0
2246 -2247 0
2246 -2248 0
2250 2251 -2249 0
2249 -2250 0
2249 -2251 0
2253 2254 -2252 0
2252 -2253 0
2252 -2254 0
2256 2257 -2255 0
2255 -2256 0
2255 -2257 0
2259 2260 -2258 0
2258 -2259 0
2258 -2260 0
2262 2263 -2261 0
2261 -2262 0
2261 -2263 0
2265 2266 -2264 0
2264 -2265 0
2264 -2266 0
2268 2269 -2267 0
2267 -2268 0
2267 -2269 0
2271 2272 -2270 0
2270 -2271 0
2270 -2272 0
2274 2275 -2273 0
2273 -2274 0
2273 -2275 0
2277 2278 -2276 0
2276 -2277 0
2276 -2278 0
2280 2281 -2279 0
2279 -2280 0
2279 -2281 0
2283 2284 -2282 0
2282 -2283 0
2282 -2284 0
2286 2287 -2285 0
2285 -2286 0
2285 -2287 0
2289 2290 -2288 0
2288 -2289 0
2288 -2290 0
2292 2293 2294 2295 -2291 0
2291 -2292 0
2291 -2293 0
2291 -2294 0
2291 -2295 0
2297 2298 -2296 0
2296 -2297 0
2296 -2298 0
2300 2301 -2299 0
2299 -2300 0
2299 -2301 0
2303 2304 -2302 0
2302 -2303 0
2302 -2304 0
2306 2307 -2305 0
2305 -2306 0
2305 -2307 0
2309 2310 -2308 0
2308 -2309 0
2308 -2310 0
2312 2313 -2311 0
2311 -2312 0
2311 -2313 0
2315 2316 -2314 0
2314 -2315 0
2314 -2316 0
2318 2319 -2317 0
2317 -2318 0
2317 -2319 0
2321 2322 -2320 0
2320 -2321 0
2320 -2322 0
2324 2325 -2323 0
2323 -2324 0
2323 -2325 0
2327 2328 -2326 0
2326 -2327 0
2326 -2328 0
2330 2331 -2329 0
2329 -2330 0
2329 -2331 0
2333 2334 -2332 0
2332 -2333 0
2332 -2334 0
2336 2337 -2335 0
2335 -2336 0
2335 -2337 0
2339 2340 -2338 0
2338 -2339 0
2338 -2340 0
2342 2343 2344 2345 -2341 0
2341 -2342 0
2341 -2343 0
2341 -2344 0
2341 -2345 0
2347 2348 -2346 0
2346 -2347 0
2346 -2348 0
2350 2351 -2349 0
2349 -2350 0
2349 -2351 0
2353 2354 -2352 0
2352 -2353 0
2352 -2354 0
2356 2357 -2355 0
2355 -2356 0
2355 -2357 0
2359 2360 -2358 0
2358 -2359 0
2358 -2360 0
2362 2363 -2361 0
2361 -2362 0
2361 -2363 0
2365 2366 -2364 0
2364 -2365 0
2364 -2366 0
2368 2369 -2367 0
2367 -2368 0
2367 -2369 0
2371 2372 -2370 0
2370 -2371 0
2370 -2372 0
2374 2375 -2373 0
2373 -2374 0
2373 -2375 0
2377 2378 -2376 0
2376 -2377 0
2376 -2378 0
2380 2381 -2379 0
2379 -2380 0
2379 -2381 0
2383 2384 -2382 0
2382 -2383 0
2382 -2384 0
2386 2387 -2385 0
2385 -2386 0
2385 -2387 0
2389 2390 -2388 0
2388 -2389 0
2388 -2390 0
2392 2393 2394 2395 -2391 0
2391 -2392 0
2391 -2393 0
2391 -2394 0
2391 -2395 0
2397 2398 -2396 0
2396 -2397 0
2396 -2398 0
2400 2401 -2399 0
2399 -2400 0
2399 -2401 0
2403 2404 -2402 0
2402 -2403 0
2402 -2404 0
2406 2407 -2405 0
2405 -2406 0
2405 -2407 0
2409 2410 -2408 0
2408 -2409 0
2408 -2410 0
2412 2413 -2411 0
2411 -2412 0
2411 -2413 0
2415 2416 -2414 0
2414 -2415 0
2414 -2416 0
2418 2419 -2417 0
2417 -2418 0
2417 -2419 0
2421 2422 -2420 0
2420 -2421 0
2420 -2422 0
2424 2425 -2423 0
2423 -2424 0
2423 -2425 0
2427 2428 -2426 0
2426 -2427 0
2426 -2428 0
2430 2431 -2429 0
2429 -2430 0
2429 -2431 0
2433 2434 -2432 0
2432 -2433 0
2432 -2434 0
2436 2437 -2435 0
2435 -2436 0
2435 -2437 0
2439 2440 -2438 0
2438 -2439 0
2438 -2440 0
2442 2443 2444 2445 -2441 0
2441 -2442 0
2441 -2443 0
2441 -2444 0
2441 -2445 0
2447 2448 -2446 0
2446 -2447 0
2446 -2448 0
2450 2451 -2449 0
2449 -2450 0
2449 -2451 0
2453 2454 -2452 0
2452 -2453 0
2452 -2454 0
2456 2457 -2455 0
2455 -2456 0
2455 -2457 0
2459 2460 -2458 0
2458 -2459 0
2458 -2460 0
2462 2463 -2461 0
2461 -2462 0
2461 -2463 0
2465 2466 -2464 0
2464 -2465 0
2464 -2466 0
2468 2469 -2467 0
2467 -2468 0
2467 -2469 0
2471 2472 -2470 0
2470 -2471 0
2470 -2472 0
2474 2475 -2473 0
2473 -2474 0
2473 -2475 0
2477 2478 -2476 0
2476 -2477 0
2476 -2478 0
2480 2481 -2479 0
2479 -2480 0
2479 -2481 0
2483 2484 -2482 0
2482 -2483 0
2482 -2484 0
2486 2487 -2485 0
2485 -2486 0
2485 -2487 0
2489 2490 -2488 0
2488 -2489 0
2488 -2490 0
2492 2493 2494 2495 -2491 0
2491 -2492 0
2491 -2493 0
2491 -2494 0
2491 -2495 0
2497 2498 -2496 0
2496 -2497 0
2496 -2498 0
2500 2501 -2499 0
2499 -2500 0
2499 -2501 0
2503 2504 -2502 0
2502 -2503 0
2502 -2504 0
2506 2507 -2505 0
2505 -2506 0
2505 -2507 0
2509 2510 -2508 0
2508 -2509 0
2508 -2510 0
2512 2513 -2511 0
2511 -2512 0
2511 -2513 0
2515 2516 -2514 0
2514 -2515 0
2514 -2516 0
2518 2519 -2517 0
2517 -2518 0
2517 -2519 0
2521 2522 -2520 0
2520 -2521 0
2520 -2522 0
2524 2525 -2523 0
2523 -2524 0
2523 -2525 0
2527 2528 -2526 0
2526 -2527 0
2526 -2528 0
2530 2531 -2529 0
2529 -2530 0
2529 -2531 0
2533 2534 -2532 0
2532 -2533 0
2532 -2534 0
2536 2537 -2535 0
2535 -2536 0
2535 -2537 0
2539 2540 -2538 0
2538 -2539 0
2538 -2540 0
2542 2543 2544 2545 -2541 0
2541 -2542 0
2541 -2543 0
2541 -2544 0
2541 -2545 0
2547 2548 -2546 0
2546 -2547 0
2546 -2548 0
2550 2551 -2549 0
2549 -2550 0
2549 -2551 0
2553 2554 -2552 0
2552 -2553 0
2552 -2554 0
2556 2557 -2555 0
2555 -2556 0
2555 -2557 0
2559 2560 -2558 0
2558 -2559 0
2558 -2560 0
2562 2563 -2561 0
2561 -2562 0
2561 -2563 0
2565 2566 -2564 0
2564 -2565 0
2564 -2566 0
2568 2569 -2567 0
2567 -2568 0
2567 -2569 0
2571 2572 -2570 0
2570 -2571 0
2570 -2572 0
2574 2575 -2573 0
2573 -2574 0
2573 -2575 0
2577 2578 -2576 0
2576 -2577 0
2576 -2578 0
2580 2581 -2579 0
2579 -2580 0
2579 -2581 0
2583 2584 -2582 0
2582 -2583 0
2582 -2584 0
2586 2587 -2585 0
2585 -2586 0
2585 -2587 0
2589 2590 -2588 0
2588 -2589 0
2588 -2590 0
2592 2593 2594 2595 -2591 0
2591 -2592 0
2591 -2593 0
2591 -2594 0
2591 -2595 0
2597 2598 -2596 0
2596 -2597 0
2596 -2598 0
2600 2601 -2599 0
2599 -2600 0
2599 -2601 0
2603 2604 -2602 0
2602 -2603 0
2602 -2604 0
2606 2607 -2605 0
2605 -2606 0
2605 -2607 0
2609 2610 -2608 0
2608 -2609 0
2608 -2610 0
2612 2613 -2611 0
2611 -2612 0
2611 -2613 0
2615 2616 -2614 0
2614 -2615 0
2614 -2616 0
2618 2619 -2617 0
2617 -2618 0
2617 -2619 0
2621 2622 -2620 0
2620 -2621 0
2620 -2622 0
2624 2625 -2623 0
2623 -2624 0
2623 -2625 0
2627 2628 -2626 0
2626 -2627 0
2626 -2628 0
2630 2631 -2629 0
2629 -2630 0
2629 -2631 0
2633 2634 -2632 0
2632 -2633 0
2632 -2634 0
2636 2637 -2635 0
2635 -2636 0
2635 -2637 0
2639 2640 -2638 0
2638 -2639 0
2638 -2640 0
2642 2643 2644 2645 -2641 0
2641 -2642 0
2641 -2643 0
2641 -2644 0
2641 -2645 0
2647 2648 -2646 0
2646 -2647 0
2646 -2648 0
2650 2651 -2649 0
2649 -2650 0
2649 -2651 0
2653 2654 -2652 0
2652 -2653 0
2652 -2654 0
2656 2657 -2655 0
2655 -2656 0
2655 -2657 0
2659 2660 -2658 0
2658 -2659 0
2658 -2660 0
2662 2663 -2661 0
2661 -2662 0
2661 -2663 0
2665 2666 -2664 0
2664 -2665 0
2664 -2666 0
2668 2669 -2667 0
2667 -2668 0
2667 -2669 0
2671 2672 -2670 0
2670 -2671 0
2670 -2672 0
2674 2675 -2673 0
2673 -2674 0
2673 -2675 0
2677 2678 -2676 0
2676 -2677 0
2676 -2678 0
2680 2681 -2679 0
2679 -2680 0
2679 -2681 0
2683 2684 -2682 0
2682 -2683 0
2682 -2684 0
2686 2687 -2685 0
2685 -2686 0
2685 -2687 0
2689 2690 -2688 0
2688 -2689 0
2688 -2690 0
2692 2693 2694 2695 -2691 0
2691 -2692 0
2691 -2693 0
2691 -2694 0
2691 -2695 0
2697 2698 -2696 0
2696 -2697 0
2696 -2698 0
2700 2701 -2699 0
2699 -2700 0
2699 -2701 0
2703 2704 -2702 0
2702 -2703 0
2702 -2704 0
2706 2707 -2705 0
2705 -2706 0
2705 -2707 0
2709 2710 -2708 0
2708 -2709 0
2708 -2710 0
2712 2713 -2711 0
2711 -2712 0
2711 -2713 0
2715 2716 -2714 0
2714 -2715 0
2714 -2716 0
2718 2719 -2717 0
2717 -2718 0
2717 -2719 0
2721 2722 -2720 0
2720 -2721 0
2720 -2722 0
2724 2725 -2723 0
2723 -2724 0
2723 -2725 0
2727 2728 -2726 0
2726 -2727 0
2726 -2728 0
2730 2731 -2729 0
2729 -2730 0
2729 -2731 0
2733 2734 -2732 0
2732 -2733 0
2732 -2734 0
2736 2737 -2735 0
2735 -2736 0
2735 -2737 0
2739 2740 -2738 0
2738 -2739 0
2738 -2740 0
2742 2743 2744 2745 -2741 0
2741 -2742 0
2741 -2743 0
2741 -2744 0
2741 -2745 0
2747 2748 -2746 0
2746 -2747 0
2746 -2748 0
2750 2751 -2749 0
2749 -2750 0
2749 -2751 0
2753 2754 -2752 0
2752 -2753 0
2752 -2754 0
2756 2757 -2755 0
2755 -2756 0
2755 -2757 0
2759 2760 -2758 0
2758 -2759 0
2758 -2760 0
2762 2763 -2761 0
2761 -2762 0
2761 -2763 0
2765 2766 -2764 0
2764 -2765 0
2764 -2766 0
2768 2769 -2767 0
2767 -2768 0
2767 -2769 0
2771 2772 -2770 0
2770 -2771 0
2770 -2772 0
2774 2775 -2773 0
2773 -2774 0
2773 -2775 0
2777 2778 -2776 0
2776 -2777 0
2776 -2778 0
2780 2781 -2779 0
2779 -2780 0
2779 -2781 0
2783 2784 -2782 0
2782 -2783 0
2782 -2784 0
2786 2787 -2785 0
2785 -2786 0
2785 -2787 0
2789 2790 -2788 0
2788 -2789 0
2788 -2790 0
2792 2793 2794 2795 -2791 0
2791 -2792 0
2791 -2793 0
2791 -2794 0
2791 -2795 0
2797 2798 -2796 0
2796 -2797 0
2796 -2798 0
2800 2801 -2799 0
2799 -2800 0
2799 -2801 0
2803 2804 -2802 0
2802 -2803 0
2802 -2804 0
2806 2807 -2805 0
2805 -2806 0
2805 -2807 0
2809 2810 -2808 0
2808 -2809 0
2808 -2810 0
2812 2813 -2811 0
2811 -2812 0
2811 -2813 0
2815 2816 -2814 0
2814 -2815 0
2814 -2816 0
2818 2819 -2817 0
2817 -2818 0
2817 -2819 0
2821 2822 -2820 0
2820 -2821 0
2820 -2822 0
2824 2825 -2823 0
2823 -2824 0
2823 -2825 0
2827 2828 -2826 0
2826 -2827 0
2826 -2828 0
2830 2831 -2829 0
2829 -2830 0
2829 -2831 0
2833 2834 -2832 0
2832 -2833 0
2832 -2834 0
2836 2837 -2835 0
2835 -2836 0
2835 -2837 0
2839 2840 -2838 0
2838 -2839 0
2838 -2840 0
2842 2843 2844 2845 -2841 0
2841 -2842 0
2841 -2843 0
2841 -2844 0
2841 -2845 0
2847 2848 -2846 0
2846 -2847 0
2846 -2848 0
2850 2851 -2849 0
2849 -2850 0
2849 -2851 0
2853 2854 -2852 0
2852 -2853 0
2852 -2854 0
2856 2857 -2855 0
2855 -2856 0
2855 -2857 0
2859 2860 -2858 0
2858 -2859 0
2858 -2860 0
2862 2863 -2861 0
2861 -2862 0
2861 -2863 0
2865 2866 -2864 0
2864 -2865 0
2864 -2866 0
2868 2869 -2867 0
2867 -2868 0
2867 -2869 0
2871 2872 -2870 0
2870 -2871 0
2870 -2872 0
2874 2875 -2873 0
2873 -2874 0
2873 -2875 0
2877 2878 -2876 0
2876 -2877 0
2876 -2878 0
2880 2881 -2879 0
2879 -2880 0
2879 -2881 0
2883 2884 -2882 0
2882 -2883 0
2882 -2884 0
2886 2887 -2885 0
2885 -2886 0
2885 -2887 0
2889 2890 -2888 0
2888 -2889 0
2888 -2890 0
2892 2893 2894 2895 -2891 0
2891 -2892 0
2891 -2893 0
2891 -2894 0
2891 -2895 0
2897 2898 -2896 0
2896 -2897 0
2896 -2898 0
2900 2901 -2899 0
2899 -2900 0
2899 -2901 0
2903 2904 -2902 0
2902 -2903 0
2902 -2904 0
2906 2907 -2905 0
2905 -2906 0
2905 -2907 0
2909 2910 -2908 0
2908 -2909 0
2908 -2910 0
2912 2913 -2911 0
2911 -2912 0
2911 -2913 0
2915 2916 -2914 0
2914 -2915 0
2914 -2916 0
2918 2919 -2917 0
2917 -2918 0
2917 -2919 0
2921 2922 -2920 0
2920 -2921 0
2920 -2922 0
2924 2925 -2923 0
2923 -2924 0
2923 -2925 0
2927 2928 -2926 0
2926 -2927 0
2926 -2928 0
2930 2931 -2929 0
2929 -2930 0
2929 -2931 0
2933 2934 -2932 0
2932 -2933 0
2932 -2934 0
2936 2937 -2935 0
2935 -2936 0
2935 -2937 0
2939 2940 -2938 0
2938 -2939 0
2938 -2940 0
2942 2943 2944 2945 -2941 0
2941 -2942 0
2941 -2943 0
2941 -2944 0
2941 -2945 0
2947 2948 -2946 0
2946 -2947 0
2946 -2948 0
2950 2951 -2949 0
2949 -2950 0
2949 -2951 0
2953 2954 -2952 0
2952 -2953 0
2952 -2954 0
2956 2957 -2955 0
2955 -2956 0
2955 -2957 0
2959 2960 -2958 0
2958 -2959 0
2958 -2960 0
2962 2963 -2961 0
2961 -2962 0
2961 -2963 0
2965 2966 -2964 0
2964 -2965 0
2964 -2966 0
2968 2969 -2967 0
2967 -2968 0
2967 -2969 0
2971 2972 -2970 0
2970 -2971 0
2970 -2972 0
2974 2975 -2973 0
2973 -2974 0
2973 -2975 0
2977 2978 -2976 0
2976 -2977 0
2976 -2978 0
2980 2981 -2979 0
2979 -2980 0
2979 -2981 0
2983 2984 -2982 0
2982 -2983 0
2982 -2984 0
2986 2987 -2985 0
2985 -2986 0
2985 -2987 0
2989 2990 -2988 0
2988 -2989 0
2988 -2990 0
2992 2993 2994 2995 -2991 0
2991 -2992 0
2991 -2993 0
2991 -2994 0
2991 -2995 0
2997 2998 -2996 0
2996 -2997 0
2996 -2998 0
3000 3001 -2999 0
2999 -3000 0
2999 -3001 0
3003 3004 -3002 0
3002 -3003 0
3002 -3004 0
3006 3007 -3005 0
3005 -3006 0
3005 -3007 0
3009 3010 -3008 0
3008 -3009 0
3008 -3010 0
3012 3013 -3011 0
3011 -3012 0
3011 -3013 0
3015 3016 -3014 0
3014 -3015 0
3014 -3016 0
3018 3019 -3017 0
3017 -3018 0
3017 -3019 0
3021 3022 -3020 0
3020 -3021 0
3020 -3022 0
3024 3025 -3023 0
3023 -3024 0
3023 -3025 0
3027 3028 -3026 0
3026 -3027 0
3026 -3028 0
3030 3031 -3029 0
3029 -3030 0
3029 -3031 0
3033 3034 -3032 0
3032 -3033 0
3032 -3034 0
3036 3037 -3035 0
3035 -3036 0
3035 -3037 0
3039 3040 -3038 0
3038 -3039 0
3038 -3040 0
3042 3043 3044 3045 -3041 0
3041 -3042 0
3041 -3043 0
3041 -3044 0
3041 -3045 0
3047 3048 -3046 0
3046 -3047 0
3046 -3048 0
3050 3051 -3049 0
3049 -3050 0
3049 -3051 0
3053 3054 -3052 0
3052 -3053 0
3052 -3054 0
3056 3057 -3055 0
3055 -3056 0
3055 -3057 0
3059 3060 -3058 0
3058 -3059 0
3058 -3060 0
3062 3063 -3061 0
3061 -3062 0
3061 -3063 0
3065 3066 -3064 0
3064 -3065 0
3064 -3066 0
3068 3069 -3067 0
3067 -3068 0
3067 -3069 0
3071 3072 -3070 0
3070 -3071 0
3070 -3072 0
3074 3075 -3073 0
3073 -3074 0
3073 -3075 0
3077 3078 -3076 0
3076 -3077 0
3076 -3078 0
3080 3081 -3079 0
3079 -3080 0
3079 -3081 0
3083 3084 -3082 0
3082 -3083 0
3082 -3084 0
3086 3087 -3085 0
3085 -3086 0
3085 -3087 0
3089 3090 -3088 0
3088 -3089 0
3088 -3090 0
3092 3093 3094 3095 -3091 0
3091 -3092 0
3091 -3093 0
3091 -3094 0
3091 -3095 0
3097 3098 -3096 0
3096 -3097 0
3096 -3098 0
3100 3101 -3099 0
3099 -3100 0
3099 -3101 0
3103 3104 -3102 0
3102 -3103 0
3102 -3104 0
3106 3107 -3105 0
3105 -3106 0
3105 -3107 0
3109 3110 -3108 0
3108 -3109 0
3108 -3110 0
3112 3113 -3111 0
3111 -3112 0
3111 -3113 0
3115 3116 -3114 0
3114 -3115 0
3114 -3116 0
3118 3119 -3117 0
3117 -3118 0
3117 -3119 0
3121 3122 -3120 0
3120 -3121 0
3120 -3122 0
3124 3125 -3123 0
3123 -3124 0
3123 -3125 0
3127 3128 -3126 0
3126 -3127 0
3126 -3128 0
3130 3131 -3129 0
3129 -3130 0
3129 -3131 0
3133 3134 -3132 0
3132 -3133 0
3132 -3134 0
3136 3137 -3135 0
3135 -3136 0
3135 -3137 0
3139 3140 -3138 0
3138 -3139 0
3138 -3140 0
3142 3143 3144 3145 -3141 0
3141 -3142 0
3141 -3143 0
3141 -3144 0
3141 -3145 0
3147 3148 -3146 0
3146 -3147 0
3146 -3148 0
3150 3151 -3149 0
3149 -3150 0
3149 -3151 0
3153 3154 -3152 0
3152 -3153 0
3152 -3154 0
3156 3157 -3155 0
3155 -3156 0
3155 -3157 0
3159 3160 -3158 0
3158 -3159 0
3158 -3160 0
3162 3163 -3161 0
3161 -3162 0
3161 -3163 0
3165 3166 -3164 0
3164 -3165 0
3164 -3166 0
3168 3169 -3167 0
3167 -3168 0
3167 -3169 0
3171 3172 -3170 0
3170 -3171 0
3170 -3172 0
3174 3175 -3173 0
3173 -3174 0
3173 -3175 0
3177 3178 -3176 0
3176 -3177 0
3176 -3178 0
3180 3181 -3179 0
3179 -3180 0
3179 -3181 0
3183 3184 -3182 0
3182 -3183 0
3182 -3184 0
3186 3187 -3185 0
3185 -3186 0
3185 -3187 0
3189 3190 -3188 0
3188 -3189 0
3188 -3190 0
3192 3193 3194 3195 -3191 0
3191 -3192 0
3191 -3193 0
3191 -3194 0
3191 -3195 0
3197 3198 -3196 0
3196 -3197 0
3196 -3198 0
3200 3201 -3199 0
3199 -3200 0
3199 -3201 0
3203 3204 -3202 0
3202 -3203 0
3202 -3204 0
3206 3207 -3205 0
3205 -3206 0
3205 -3207 0
3209 3210 -3208 0
3208 -3209 0
3208 -3210 0
3212 3213 -3211 0
3211 -3212 0
3211 -3213 0
3215 3216 -3214 0
3214 -3215 0
3214 -3216 0
3218 3219 -3217 0
3217 -3218 0
3217 -3219 0
3221 3222 -3220 0
3220 -3221 0
3220 -3222 0
3224 3225 -3223 0
3223 -3224 0
3223 -3225 0
3227 3228 -3226 0
3226 -3227 0
3226 -3228 0
3230 3231 -3229 0
3229 -3230 0
3229 -3231 0
3233 3234 -3232 0
3232 -3233 0
3232 -3234 0
3236 3237 -3235 0
3235 -3236 0
3235 -3237 0
3239 3240 -3238 0
3238 -3239 0
3238 -3240 0
3242 3243 -3241 0
3241 -3242 0
3241 -3243 0
3245 3246 -3244 0
3244 -3245 0
3244 -3246 0
3248 3249 -3247 0
3247 -3248 0
3247 -3249 0
3251 3252 -3250 0
3250 -3251 0
3250 -3252 0
3254 3255 -3253 0
3253 -3254 0
3253 -3255 0
3257 3258 -3256 0
3256 -3257 0
3256 -3258 0
3260 3261 -3259 0
3259 -3260 0
3259 -3261 0
3263 3264 -3262 0
3262 -3263 0
3262 -3264 0
4402 -1 0
-4403 0
4404 -2 0
4404 -4402 0
4405 -2 -4402 0
4405 -4403 0
-4403 -2 0
4406 -3 0
4406 -4404 0
4407 -3 -4404 0
4407 -4405 0
-3 -4405 0
4408 -4 0
4408 -4406 0
4409 -4 -4406 0
4409 -4407 0
-4 -4407 0
4410 -5 0
4410 -4408 0
4411 -5 -4408 0
4411 -4409 0
-5 -4409 0
4412 -6 0
4412 -4410 0
4413 -6 -4410 0
4413 -4411 0
-6 -4411 0
4414 -7 0
4414 -4412 0
4415 -7 -4412 0
4415 -4413 0
-7 -4413 0
4416 -8 0
4416 -4414 0
4417 -8 -4414 0
4417 -4415 0
-8 -4415 0
4418 -9 0
4418 -4416 0
4419 -9 -4416 0
4419 -4417 0
-9 -4417 0
4420 -10 0
4420 -4418 0
4421 -10 -4418 0
4421 -4419 0
-10 -4419 0
4422 -11 0
4422 -4420 0
4423 -11 -4420 0
4423 -4421 0
-11 -4421 0
4424 -12 0
4424 -4422 0
4425 -12 -4422 0
4425 -4423 0
-12 -4423 0
-13 4426 0
4426 -4424 0
-13 4427 -4424 0
4427 -4425 0
-13 -4425 0
-18 4428 0
4428 -4426 0
-18 4429 -4426 0
4429 -4427 0
-18 -4427 0
-21 4430 0
4430 -4428 0
-21 4431 -4428 0
4431 -4429 0
-21 -4429 0
-24 4432 0
4432 -4430 0
-24 4433 -4430 0
4433 -4431 0
-24 -4431 0
-27 4434 0
4434 -4432 0
-27 4435 -4432 0
4435 -4433 0
-27 -4433 0
-30 4436 0
4436 -4434 0
-30 4437 -4434 0
4437 -4435 0
-30 -4435 0
-33 4438 0
4438 -4436 0
-33 4439 -4436 0
4439 -4437 0
-33 -4437 0
-36 4440 0
4440 -4438 0
-36 4441 -4438 0
4441 -4439 0
-36 -4439 0
-39 4442 0
4442 -4440 0
-39 4443 -4440 0
4443 -4441 0
-39 -4441 0
-42 4444 0
4444 -4442 0
-42 4445 -4442 0
4445 -4443 0
-42 -4443 0
-45 4446 0
4446 -4444 0
-45 4447 -4444 0
4447 -4445 0
-45 -4445 0
-48 4448 0
4448 -4446 0
-48 4449 -4446 0
4449 -4447 0
-48 -4447 0
-51 4450 0
4450 -4448 0
-51 4451 -4448 0
4451 -4449 0
-51 -4449 0
-54 4452 0
4452 -4450 0
-54 4453 -4450 0
4453 -4451 0
-54 -4451 0
-57 4454 0
4454 -4452 0
-57 4455 -4452 0
4455 -4453 0
-57 -4453 0
-60 4456 0
4456 -4454 0
-60 4457 -4454 0
4457 -4455 0
-60 -4455 0
-63 4458 0
4458 -4456 0
-63 4459 -4456 0
4459 -4457 0
-63 -4457 0
-66 4460 0
4460 -4458 0
-66 4461 -4458 0
4461 -4459 0
-66 -4459 0
-69 4462 0
4462 -4460 0
-69 4463 -4460 0
4463 -4461 0
-69 -4461 0
-72 4464 0
4464 -4462 0
-72 4465 -4462 0
4465 -4463 0
-72 -4463 0
-75 4466 0
4466 -4464 0
-75 4467 -4464 0
4467 -4465 0
-75 -4465 0
-80 4468 0
4468 -4466 0
-80 4469 -4466 0
4469 -4467 0
-80 -4467 0
-83 4470 0
4470 -4468 0
-83 4471 -4468 0
4471 -4469 0
-83 -4469 0
-86 4472 0
4472 -4470 0
-86 4473 -4470 0
4473 -4471 0
-86 -4471 0
-89 4474 0
4474 -4472 0
-89 4475 -4472 0
4475 -4473 0
-89 -4473 0
-92 4476 0
4476 -4474 0
-92 4477 -4474 0
4477 -4475 0
-92 -4475 0
-95 4478 0
4478 -4476 0
-95 4479 -4476 0
4479 -4477 0
-95 -4477 0
-98 4480 0
4480 -4478 0
-98 4481 -4478 0
4481 -4479 0
-98 -4479 0
-101 4482 0
4482 -4480 0
-101 4483 -4480 0
4483 -4481 0
-101 -4481 0
-104 4484 0
4484 -4482 0
-104 4485 -4482 0
4485 -4483 0
-104 -4483 0
-107 4486 0
4486 -4484 0
-107 4487 -4484 0
4487 -4485 0
-107 -4485 0
-110 4488 0
4488 -4486 0
-110 4489 -4486 0
4489 -4487 0
-110 -4487 0
-113 4490 0
4490 -4488 0
-113 4491 -4488 0
4491 -4489 0
-113 -4489 0
-116 4492 0
4492 -4490 0
-116 4493 -4490 0
4493 -4491 0
-116 -4491 0
-119 4494 0
4494 -4492 0
-119 4495 -4492 0
4495 -4493 0
-119 -4493 0
-122 4496 0
4496 -4494 0
-122 4497 -4494 0
4497 -4495 0
-122 -4495 0
-125 4498 0
4498 -4496 0
-125 4499 -4496 0
4499 -4497 0
-125 -4497 0
-128 4500 0
4500 -4498 0
-128 4501 -4498 0
4501 -4499 0
-128 -4499 0
-131 4502 0
4502 -4500 0
-131 4503 -4500 0
4503 -4501 0
-131 -4501 0
-134 4504 0
4504 -4502 0
-134 4505 -4502 0
4505 -4503 0
-134 -4503 0
-137 4506 0
4506 -4504 0
-137 4507 -4504 0
4507 -4505 0
-137 -4505 0
-142 4508 0
4508 -4506 0
-142 4509 -4506 0
4509 -4507 0
-142 -4507 0
-145 4510 0
4510 -4508 0
-145 4511 -4508 0
4511 -4509 0
-145 -4509 0
-148 4512 0
4512 -4510 0
-148 4513 -4510 0
4513 -4511 0
-148 -4511 0
-151 4514 0
4514 -4512 0
-151 4515 -4512 0
4515 -4513 0
-151 -4513 0
-154 4516 0
4516 -4514 0
-154 4517 -4514 0
4517 -4515 0
-154 -4515 0
-157 4518 0
4518 -4516 0
-157 4519 -4516 0
4519 -4517 0
-157 -4517 0
-160 4520 0
4520 -4518 0
-160 4521 -4518 0
4521 -4519 0
-160 -4519 0
-163 4522 0
4522 -4520 0
-163 4523 -4520 0
4523 -4521 0
-163 -4521 0
-166 4524 0
4524 -4522 0
-166 4525 -4522 0
4525 -4523 0
-166 -4523 0
-169 4526 0
4526 -4524 0
-169 4527 -4524 0
4527 -4525 0
-169 -4525 0
-172 4528 0
4528 -4526 0
-172 4529 -4526 0
4529 -4527 0
-172 -4527 0
-175 4530 0
4530 -4528 0
-175 4531 -4528 0
4531 -4529 0
-175 -4529 0
-178 4532 0
4532 -4530 0
-178 4533 -4530 0
4533 -4531 0
-178 -4531 0
-181 4534 0
4534 -4532 0
-181 4535 -4532 0
4535 -4533 0
-181 -4533 0
-184 4536 0
4536 -4534 0
-184 4537 -4534 0
4537 -4535 0
-184 -4535 0
-187 4538 0
4538 -4536 0
-187 4539 -4536 0
4539 -4537 0
-187 -4537 0
-190 4540 0
4540 -4538 0
-190 4541 -4538 0
4541 -4539 0
-190 -4539 0
-193 4542 0
4542 -4540 0
-193 4543 -4540 0
4543 -4541 0
-193 -4541 0
-196 4544 0
4544 -4542 0
-196 4545 -4542 0
4545 -4543 0
-196 -4543 0
-199 4546 0
4546 -4544 0
-199 4547 -4544 0
4547 -4545 0
-199 -4545 0
-204 4548 0
4548 -4546 0
-204 4549 -4546 0
4549 -4547 0
-204 -4547 0
-207 4550 0
4550 -4548 0
-207 4551 -4548 0
4551 -4549 0
-207 -4549 0
-210 4552 0
4552 -4550 0
-210 4553 -4550 0
4553 -4551 0
-210 -4551 0
-213 4554 0
4554 -4552 0
-213 4555 -4552 0
4555 -4553 0
-213 -4553 0
-216 4556 0
4556 -4554 0
-216 4557 -4554 0
4557 -4555 0
-216 -4555 0
-219 4558 0
4558 -4556 0
-219 4559 -4556 0
4559 -4557 0
-219 -4557 0
-222 4560 0
4560 -4558 0
-222 4561 -4558 0
4561 -4559 0
-222 -4559 0
-225 4562 0
4562 -4560 0
-225 4563 -4560 0
4563 -4561 0
-225 -4561 0
-228 4564 0
4564 -4562 0
-228 4565 -4562 0
4565 -4563 0
-228 -4563 0
-231 4566 0
4566 -4564 0
-231 4567 -4564 0
4567 -4565 0
-231 -4565 0
-234 4568 0
4568 -4566 0
-234 4569 -4566 0
4569 -4567 0
-234 -4567 0
-237 4570 0
4570 -4568 0
-237 4571 -4568 0
4571 -4569 0
-237 -4569 0
-240 4572 0
4572 -4570 0
-240 4573 -4570 0
4573 -4571 0
-240 -4571 0
-243 4574 0
4574 -4572 0
-243 4575 -4572 0
4575 -4573 0
-243 -4573 0
-246 4576 0
4576 -4574 0
-246 4577 -4574 0
4577 -4575 0
-246 -4575 0
-249 4578 0
4578 -4576 0
-249 4579 -4576 0
4579 -4577 0
-249 -4577 0
-252 4580 0
4580 -4578 0
-252 4581 -4578 0
4581 -4579 0
-252 -4579 0
-255 4582 0
4582 -4580 0
-255 4583 -4580 0
4583 -4581 0
-255 -4581 0
-258 4584 0
4584 -4582 0
-258 4585 -4582 0
4585 -4583 0
-258 -4583 0
-261 4586 0
4586 -4584 0
-261 4587 -4584 0
4587 -4585 0
-261 -4585 0
-266 4588 0
4588 -4586 0
-266 4589 -4586 0
4589 -4587 0
-266 -4587 0
-269 4590 0
4590 -4588 0
-269 4591 -4588 0
4591 -4589 0
-269 -4589 0
-272 4592 0
4592 -4590 0
-272 4593 -4590 0
4593 -4591 0
-272 -4591 0
-275 4594 0
4594 -4592 0
-275 4595 -4592 0
4595 -4593 0
-275 -4593 0
-278 4596 0
4596 -4594 0
-278 4597 -4594 0
4597 -4595 0
-278 -4595 0
-281 4598 0
4598 -4596 0
-281 4599 -4596 0
4599 -4597 0
-281 -4597 0
-284 4600 0
4600 -4598 0
-284 4601 -4598 0
4601 -4599 0
-284 -4599 0
-287 4602 0
4602 -4600 0
-287 4603 -4600 0
4603 -4601 0
-287 -4601 0
-290 4604 0
4604 -4602 0
-290 4605 -4602 0
4605 -4603 0
-290 -4603 0
-293 4606 0
4606 -4604 0
-293 4607 -4604 0
4607 -4605 0
-293 -4605 0
-296 4608 0
4608 -4606 0
-296 4609 -4606 0
4609 -4607 0
-296 -4607 0
-299 4610 0
4610 -4608 0
-299 4611 -4608 0
4611 -4609 0
-299 -4609 0
-302 4612 0
4612 -4610 0
-302 4613 -4610 0
4613 -4611 0
-302 -4611 0
-305 4614 0
4614 -4612 0
-305 4615 -4612 0
4615 -4613 0
-305 -4613 0
-308 4616 0
4616 -4614 0
-308 4617 -4614 0
4617 -4615 0
-308 -4615 0
-311 4618 0
4618 -4616 0
-311 4619 -4616 0
4619 -4617 0
-311 -4617 0
-314 4620 0
4620 -4618 0
-314 4621 -4618 0
4621 -4619 0
-314 -4619 0
-317 4622 0
4622 -4620 0
-317 4623 -4620 0
4623 -4621 0
-317 -4621 0
-320 4624 0
4624 -4622 0
-320 4625 -4622 0
4625 -4623 0
-320 -4623 0
-323 4626 0
4626 -4624 0
-323 4627 -4624 0
4627 -4625 0
-323 -4625 0
-328 4628 0
4628 -4626 0
-328 4629 -4626 0
4629 -4627 0
-328 -4627 0
-331 4630 0
4630 -4628 0
-331 4631 -4628 0
4631 -4629 0
-331 -4629 0
-334 4632 0
4632 -4630 0
-334 4633 -4630 0
4633 -4631 0
-334 -4631 0
-337 4634 0
4634 -4632 0
-337 4635 -4632 0
4635 -4633 0
-337 -4633 0
-340 4636 0
4636 -4634 0
-340 4637 -4634 0
4637 -4635 0
-340 -4635 0
-343 4638 0
4638 -4636 0
-343 4639 -4636 0
4639 -4637 0
-343 -4637 0
-346 4640 0
4640 -4638 0
-346 4641 -4638 0
4641 -4639 0
-346 -4639 0
-349 4642 0
4642 -4640 0
-349 4643 -4640 0
4643 -4641 0
-349 -4641 0
-352 4644 0
4644 -4642 0
-352 4645 -4642 0
4645 -4643 0
-352 -4643 0
-355 4646 0
4646 -4644 0
-355 4647 -4644 0
4647 -4645 0
-355 -4645 0
-358 4648 0
4648 -4646 0
-358 4649 -4646 0
4649 -4647 0
-358 -4647 0
-361 4650 0
4650 -4648 0
-361 4651 -4648 0
4651 -4649 0
-361 -4649 0
-364 4652 0
4652 -4650 0
-364 4653 -4650 0
4653 -4651 0
-364 -4651 0
-367 4654 0
4654 -4652 0
-367 4655 -4652 0
4655 -4653 0
-367 -4653 0
-370 4656 0
4656 -4654 0
-370 4657 -4654 0
4657 -4655 0
-370 -4655 0
-373 4658 0
4658 -4656 0
-373 4659 -4656 0
4659 -4657 0
-373 -4657 0
-376 4660 0
4660 -4658 0
-376 4661 -4658 0
4661 -4659 0
-376 -4659 0
-379 4662 0
4662 -4660 0
-379 4663 -4660 0
4663 -4661 0
-379 -4661 0
-382 4664 0
4664 -4662 0
-382 4665 -4662 0
4665 -4663 0
-382 -4663 0
-385 4666 0
4666 -4664 0
-385 4667 -4664 0
4667 -4665 0
-385 -4665 0
-390 4668 0
4668 -4666 0
-390 4669 -4666 0
4669 -4667 0
-390 -4667 0
-393 4670 0
4670 -4668 0
-393 4671 -4668 0
4671 -4669 0
-393 -4669 0
-396 4672 0
4672 -4670 0
-396 4673 -4670 0
4673 -4671 0
-396 -4671 0
-399 4674 0
4674 -4672 0
-399 4675 -4672 0
4675 -4673 0
-399 -4673 0
-402 4676 0
4676 -4674 0
-402 4677 -4674 0
4677 -4675 0
-402 -4675 0
-405 4678 0
4678 -4676 0
-405 4679 -4676 0
4679 -4677 0
-405 -4677 0
-408 4680 0
4680 -4678 0
-408 4681 -4678 0
4681 -4679 0
-408 -4679 0
-411 4682 0
4682 -4680 0
-411 4683 -4680 0
4683 -4681 0
-411 -4681 0
-414 4684 0
4684 -4682 0
-414 4685 -4682 0
4685 -4683 0
-414 -4683 0
-417 4686 0
4686 -4684 0
-417 4687 -4684 0
4687 -4685 0
-417 -4685 0
-420 4688 0
4688 -4686 0
-420 4689 -4686 0
4689 -4687 0
-420 -4687 0
-423 4690 0
4690 -4688 0
-423 4691 -4688 0
4691 -4689 0
-423 -4689 0
-426 4692 0
4692 -4690 0
-426 4693 -4690 0
4693 -4691 0
-426 -4691 0
-429 4694 0
4694 -4692 0
-429 4695 -4692 0
4695 -4693 0
-429 -4693 0
-432 4696 0
4696 -4694 0
-432 4697 -4694 0
4697 -4695 0
-432 -4695 0
-435 4698 0
4698 -4696 0
-435 4699 -4696 0
4699 -4697 0
-435 -4697 0
-438 4700 0
4700 -4698 0
-438 4701 -4698 0
4701 -4699 0
-438 -4699 0
-441 4702 0
4702 -4700 0
-441 4703 -4700 0
4703 -4701 0
-441 -4701 0
-444 4704 0
4704 -4702 0
-444 4705 -4702 0
4705 -4703 0
-444 -4703 0
-447 4706 0
4706 -4704 0
-447 4707 -4704 0
4707 -4705 0
-447 -4705 0
-452 4708 0
4708 -4706 0
-452 4709 -4706 0
4709 -4707 0
-452 -4707 0
-455 4710 0
4710 -4708 0
-455 4711 -4708 0
4711 -4709 0
-455 -4709 0
-458 4712 0
4712 -4710 0
-458 4713 -4710 0
4713 -4711 0
-458 -4711 0
-461 4714 0
4714 -4712 0
-461 4715 -4712 0
4715 -4713 0
-461 -4713 0
-464 4716 0
4716 -4714 0
-464 4717 -4714 0
4717 -4715 0
-464 -4715 0
-467 4718 0
4718 -4716 0
-467 4719 -4716 0
4719 -4717 0
-467 -4717 0
-470 4720 0
4720 -4718 0
-470 4721 -4718 0
4721 -4719 0
-470 -4719 0
-473 4722 0
4722 -4720 0
-473 4723 -4720 0
4723 -4721 0
-473 -4721 0
-476 4724 0
4724 -4722 0
-476 4725 -4722 0
4725 -4723 0
-476 -4723 0
-479 4726 0
4726 -4724 0
-479 4727 -4724 0
4727 -4725 0
-479 -4725 0
-482 4728 0
4728 -4726 0
-482 4729 -4726 0
4729 -4727 0
-482 -4727 0
-485 4730 0
4730 -4728 0
-485 4731 -4728 0
4731 -4729 0
-485 -4729 0
-488 4732 0
4732 -4730 0
-488 4733 -4730 0
4733 -4731 0
-488 -4731 0
-491 4734 0
4734 -4732 0
-491 4735 -4732 0
4735 -4733 0
-491 -4733 0
-494 4736 0
4736 -4734 0
-494 4737 -4734 0
4737 -4735 0
-494 -4735 0
-497 4738 0
4738 -4736 0
-497 4739 -4736 0
4739 -4737 0
-497 -4737 0
-500 4740 0
4740 -4738 0
-500 4741 -4738 0
4741 -4739 0
-500 -4739 0
-503 4742 0
4742 -4740 0
-503 4743 -4740 0
4743 -4741 0
-503 -4741 0
-506 4744 0
4744 -4742 0
-506 4745 -4742 0
4745 -4743 0
-506 -4743 0
-509 4746 0
4746 -4744 0
-509 4747 -4744 0
4747 -4745 0
-509 -4745 0
-514 4748 0
4748 -4746 0
-514 4749 -4746 0
4749 -4747 0
-514 -4747 0
-517 4750 0
4750 -4748 0
-517 4751 -4748 0
4751 -4749 0
-517 -4749 0
-520 4752 0
4752 -4750 0
-520 4753 -4750 0
4753 -4751 0
-520 -4751 0
-523 4754 0
4754 -4752 0
-523 4755 -4752 0
4755 -4753 0
-523 -4753 0
-526 4756 0
4756 -4754 0
-526 4757 -4754 0
4757 -4755 0
-526 -4755 0
-529 4758 0
4758 -4756 0
-529 4759 -4756 0
4759 -4757 0
-529 -4757 0
-532 4760 0
4760 -4758 0
-532 4761 -4758 0
4761 -4759 0
-532 -4759 0
-535 4762 0
4762 -4760 0
-535 4763 -4760 0
4763 -4761 0
-535 -4761 0
-538 4764 0
4764 -4762 0
-538 4765 -4762 0
4765 -4763 0
-538 -4763 0
-541 4766 0
4766 -4764 0
-541 4767 -4764 0
4767 -4765 0
-541 -4765 0
-544 4768 0
4768 -4766 0
-544 4769 -4766 0
4769 -4767 0
-544 -4767 0
-547 4770 0
4770 -4768 0
-547 4771 -4768 0
4771 -4769 0
-547 -4769 0
-550 4772 0
4772 -4770 0
-550 4773 -4770 0
4773 -4771 0
-550 -4771 0
-553 4774 0
4774 -4772 0
-553 4775 -4772 0
4775 -4773 0
-553 -4773 0
-556 4776 0
4776 -4774 0
-556 4777 -4774 0
4777 -4775 0
-556 -4775 0
-559 4778 0
4778 -4776 0
-559 4779 -4776 0
4779 -4777 0
-559 -4777 0
-562 4780 0
4780 -4778 0
-562 4781 -4778 0
4781 -4779 0
-562 -4779 0
-565 4782 0
4782 -4780 0
-565 4783 -4780 0
4783 -4781 0
-565 -4781 0
-568 4784 0
4784 -4782 0
-568 4785 -4782 0
4785 -4783 0
-568 -4783 0
-571 4786 0
4786 -4784 0
-571 4787 -4784 0
4787 -4785 0
-571 -4785 0
-576 4788 0
4788 -4786 0
-576 4789 -4786 0
4789 -4787 0
-576 -4787 0
-579 4790 0
4790 -4788 0
-579 4791 -4788 0
4791 -4789 0
-579 -4789 0
-582 4792 0
4792 -4790 0
-582 4793 -4790 0
4793 -4791 0
-582 -4791 0
-585 4794 0
4794 -4792 0
-585 4795 -4792 0
4795 -4793 0
-585 -4793 0
-588 4796 0
4796 -4794 0
-588 4797 -4794 0
4797 -4795 0
-588 -4795 0
-591 4798 0
4798 -4796 0
-591 4799 -4796 0
4799 -4797 0
-591 -4797 0
-594 4800 0
4800 -4798 0
-594 4801 -4798 0
4801 -4799 0
-594 -4799 0
-597 4802 0
4802 -4800 0
-597 4803 -4800 0
4803 -4801 0
-597 -4801 0
-600 4804 0
4804 -4802 0
-600 4805 -4802 0
4805 -4803 0
-600 -4803 0
-603 4806 0
4806 -4804 0
-603 4807 -4804 0
4807 -4805 0
-603 -4805 0
-606 4808 0
4808 -4806 0
-606 4809 -4806 0
4809 -4807 0
-606 -4807 0
-609 4810 0
4810 -4808 0
-609 4811 -4808 0
4811 -4809 0
-609 -4809 0
-612 4812 0
4812 -4810 0
-612 4813 -4810 0
4813 -4811 0
-612 -4811 0
-615 4814 0
4814 -4812 0
-615 4815 -4812 0
4815 -4813 0
-615 -4813 0
-618 4816 0
4816 -4814 0
-618 4817 -4814 0
4817 -4815 0
-618 -4815 0
-621 4818 0
4818 -4816 0
-621 4819 -4816 0
4819 -4817 0
-621 -4817 0
-624 4820 0
4820 -4818 0
-624 4821 -4818 0
4821 -4819 0
-624 -4819 0
-627 4822 0
4822 -4820 0
-627 4823 -4820 0
4823 -4821 0
-627 -4821 0
-630 4824 0
4824 -4822 0
-630 4825 -4822 0
4825 -4823 0
-630 -4823 0
-633 4826 0
4826 -4824 0
-633 4827 -4824 0
4827 -4825 0
-633 -4825 0
-638 4828 0
4828 -4826 0
-638 4829 -4826 0
4829 -4827 0
-638 -4827 0
-641 4830 0
4830 -4828 0
-641 4831 -4828 0
4831 -4829 0
-641 -4829 0
-644 4832 0
4832 -4830 0
-644 4833 -4830 0
4833 -4831 0
-644 -4831 0
-647 4834 0
4834 -4832 0
-647 4835 -4832 0
4835 -4833 0
-647 -4833 0
-650 4836 0
4836 -4834 0
-650 4837 -4834 0
4837 -4835 0
-650 -4835 0
-653 4838 0
4838 -4836 0
-653 4839 -4836 0
4839 -4837 0
-653 -4837 0
-656 4840 0
4840 -4838 0
-656 4841 -4838 0
4841 -4839 0
-656 -4839 0
-659 4842 0
4842 -4840 0
-659 4843 -4840 0
4843 -4841 0
-659 -4841 0
-662 4844 0
4844 -4842 0
-662 4845 -4842 0
4845 -4843 0
-662 -4843 0
-665 4846 0
4846 -4844 0
-665 4847 -4844 0
4847 -4845 0
-665 -4845 0
-668 4848 0
4848 -4846 0
-668 4849 -4846 0
4849 -4847 0
-668 -4847 0
-671 4850 0
4850 -4848 0
-671 4851 -4848 0
4851 -4849 0
-671 -4849 0
-674 4852 0
4852 -4850 0
-674 4853 -4850 0
4853 -4851 0
-674 -4851 0
-677 4854 0
4854 -4852 0
-677 4855 -4852 0
4855 -4853 0
-677 -4853 0
-680 4856 0
4856 -4854 0
-680 4857 -4854 0
4857 -4855 0
-680 -4855 0
-683 4858 0
4858 -4856 0
-683 4859 -4856 0
4859 -4857 0
-683 -4857 0
-686 4860 0
4860 -4858 0
-686 4861 -4858 0
4861 -4859 0
-686 -4859 0
-689 4862 0
4862 -4860 0
-689 4863 -4860 0
4863 -4861 0
-689 -4861 0
-692 4864 0
4864 -4862 0
-692 4865 -4862 0
4865 -4863 0
-692 -4863 0
-695 4866 0
4866 -4864 0
-695 4867 -4864 0
4867 -4865 0
-695 -4865 0
-700 4868 0
4868 -4866 0
-700 4869 -4866 0
4869 -4867 0
-700 -4867 0
-703 4870 0
4870 -4868 0
-703 4871 -4868 0
4871 -4869 0
-703 -4869 0
-706 4872 0
4872 -4870 0
-706 4873 -4870 0
4873 -4871 0
-706 -4871 0
-709 4874 0
4874 -4872 0
-709 4875 -4872 0
4875 -4873 0
-709 -4873 0
-712 4876 0
4876 -4874 0
-712 4877 -4874 0
4877 -4875 0
-712 -4875 0
-715 4878 0
4878 -4876 0
-715 4879 -4876 0
4879 -4877 0
-715 -4877 0
-718 4880 0
4880 -4878 0
-718 4881 -4878 0
4881 -4879 0
-718 -4879 0
-721 4882 0
4882 -4880 0
-721 4883 -4880 0
4883 -4881 0
-721 -4881 0
-724 4884 0
4884 -4882 0
-724 4885 -4882 0
4885 -4883 0
-724 -4883 0
-727 4886 0
4886 -4884 0
-727 4887 -4884 0
4887 -4885 0
-727 -4885 0
-730 4888 0
4888 -4886 0
-730 4889 -4886 0
4889 -4887 0
-730 -4887 0
-733 4890 0
4890 -4888 0
-733 4891 -4888 0
4891 -4889 0
-733 -4889 0
-736 4892 0
4892 -4890 0
-736 4893 -4890 0
4893 -4891 0
-736 -4891 0
-739 4894 0
4894 -4892 0
-739 4895 -4892 0
4895 -4893 0
-739 -4893 0
-742 4896 0
4896 -4894 0
-742 4897 -4894 0
4897 -4895 0
-742 -4895 0
-745 4898 0
4898 -4896 0
-745 4899 -4896 0
4899 -4897 0
-745 -4897 0
-748 4900 0
4900 -4898 0
-748 4901 -4898 0
4901 -4899 0
-748 -4899 0
-751 4902 0
4902 -4900 0
-751 4903 -4900 0
4903 -4901 0
-751 -4901 0
-754 4904 0
4904 -4902 0
-754 4905 -4902 0
4905 -4903 0
-754 -4903 0
-757 4906 0
4906 -4904 0
-757 4907 -4904 0
4907 -4905 0
-757 -4905 0
-762 4908 0
4908 -4906 0
-762 4909 -4906 0
4909 -4907 0
-762 -4907 0
-765 4910 0
4910 -4908 0
-765 4911 -4908 0
4911 -4909 0
-765 -4909 0
-768 4912 0
4912 -4910 0
-768 4913 -4910 0
4913 -4911 0
-768 -4911 0
-771 4914 0
4914 -4912 0
-771 4915 -4912 0
4915 -4913 0
-771 -4913 0
-774 4916 0
4916 -4914 0
-774 4917 -4914 0
4917 -4915 0
-774 -4915 0
-777 4918 0
4918 -4916 0
-777 4919 -4916 0
4919 -4917 0
-777 -4917 0
-780 4920 0
4920 -4918 0
-780 4921 -4918 0
4921 -4919 0
-780 -4919 0
-783 4922 0
4922 -4920 0
-783 4923 -4920 0
4923 -4921 0
-783 -4921 0
-786 4924 0
4924 -4922 0
-786 4925 -4922 0
4925 -4923 0
-786 -4923 0
-789 4926 0
4926 -4924 0
-789 4927 -4924 0
4927 -4925 0
-789 -4925 0
-792 4928 0
4928 -4926 0
-792 4929 -4926 0
4929 -4927 0
-792 -4927 0
-795 4930 0
4930 -4928 0
-795 4931 -4928 0
4931 -4929 0
-795 -4929 0
-798 4932 0
4932 -4930 0
-798 4933 -4930 0
4933 -4931 0
-798 -4931 0
-801 4934 0
4934 -4932 0
-801 4935 -4932 0
4935 -4933 0
-801 -4933 0
-804 4936 0
4936 -4934 0
-804 4937 -4934 0
4937 -4935 0
-804 -4935 0
-807 4938 0
4938 -4936 0
-807 4939 -4936 0
4939 -4937 0
-807 -4937 0
-810 4940 0
4940 -4938 0
-810 4941 -4938 0
4941 -4939 0
-810 -4939 0
-813 4942 0
4942 -4940 0
-813 4943 -4940 0
4943 -4941 0
-813 -4941 0
-816 4944 0
4944 -4942 0
-816 4945 -4942 0
4945 -4943 0
-816 -4943 0
-819 4946 0
4946 -4944 0
-819 4947 -4944 0
4947 -4945 0
-819 -4945 0
-824 4948 0
4948 -4946 0
-824 4949 -4946 0
4949 -4947 0
-824 -4947 0
-827 4950 0
4950 -4948 0
-827 4951 -4948 0
4951 -4949 0
-827 -4949 0
-830 4952 0
4952 -4950 0
-830 4953 -4950 0
4953 -4951 0
-830 -4951 0
-833 4954 0
4954 -4952 0
-833 4955 -4952 0
4955 -4953 0
-833 -4953 0
-836 4956 0
4956 -4954 0
-836 4957 -4954 0
4957 -4955 0
-836 -4955 0
-839 4958 0
4958 -4956 0
-839 4959 -4956 0
4959 -4957 0
-839 -4957 0
-842 4960 0
4960 -4958 0
-842 4961 -4958 0
4961 -4959 0
-842 -4959 0
-845 4962 0
4962 -4960 0
-845 4963 -4960 0
4963 -4961 0
-845 -4961 0
-848 4964 0
4964 -4962 0
-848 4965 -4962 0
4965 -4963 0
-848 -4963 0
-851 4966 0
4966 -4964 0
-851 4967 -4964 0
4967 -4965 0
-851 -4965 0
-854 4968 0
4968 -4966 0
-854 4969 -4966 0
4969 -4967 0
-854 -4967 0
-857 4970 0
4970 -4968 0
-857 4971 -4968 0
4971 -4969 0
-857 -4969 0
-860 4972 0
4972 -4970 0
-860 4973 -4970 0
4973 -4971 0
-860 -4971 0
-863 4974 0
4974 -4972 0
-863 4975 -4972 0
4975 -4973 0
-863 -4973 0
-866 4976 0
4976 -4974 0
-866 4977 -4974 0
4977 -4975 0
-866 -4975 0
-869 4978 0
4978 -4976 0
-869 4979 -4976 0
4979 -4977 0
-869 -4977 0
-872 4980 0
4980 -4978 0
-872 4981 -4978 0
4981 -4979 0
-872 -4979 0
-875 4982 0
4982 -4980 0
-875 4983 -4980 0
4983 -4981 0
-875 -4981 0
-878 4984 0
4984 -4982 0
-878 4985 -4982 0
4985 -4983 0
-878 -4983 0
-881 4986 0
4986 -4984 0
-881 4987 -4984 0
4987 -4985 0
-881 -4985 0
-886 4988 0
4988 -4986 0
-886 4989 -4986 0
4989 -4987 0
-886 -4987 0
-889 4990 0
4990 -4988 0
-889 4991 -4988 0
4991 -4989 0
-889 -4989 0
-892 4992 0
4992 -4990 0
-892 4993 -4990 0
4993 -4991 0
-892 -4991 0
-895 4994 0
4994 -4992 0
-895 4995 -4992 0
4995 -4993 0
-895 -4993 0
-898 4996 0
4996 -4994 0
-898 4997 -4994 0
4997 -4995 0
-898 -4995 0
-901 4998 0
4998 -4996 0
-901 4999 -4996 0
4999 -4997 0
-901 -4997 0
-904 5000 0
5000 -4998 0
-904 5001 -4998 0
5001 -4999 0
-904 -4999 0
-907 5002 0
5002 -5000 0
-907 5003 -5000 0
5003 -5001 0
-907 -5001 0
-910 5004 0
5004 -5002 0
-910 5005 -5002 0
5005 -5003 0
-910 -5003 0
-913 5006 0
5006 -5004 0
-913 5007 -5004 0
5007 -5005 0
-913 -5005 0
-916 5008 0
5008 -5006 0
-916 5009 -5006 0
5009 -5007 0
-916 -5007 0
-919 5010 0
5010 -5008 0
-919 5011 -5008 0
5011 -5009 0
-919 -5009 0
-922 5012 0
5012 -5010 0
-922 5013 -5010 0
5013 -5011 0
-922 -5011 0
-925 5014 0
5014 -5012 0
-925 5015 -5012 0
5015 -5013 0
-925 -5013 0
-928 5016 0
5016 -5014 0
-928 5017 -5014 0
5017 -5015 0
-928 -5015 0
-931 5018 0
5018 -5016 0
-931 5019 -5016 0
5019 -5017 0
-931 -5017 0
-934 5020 0
5020 -5018 0
-934 5021 -5018 0
5021 -5019 0
-934 -5019 0
-937 5022 0
5022 -5020 0
-937 5023 -5020 0
5023 -5021 0
-937 -5021 0
-940 5024 0
5024 -5022 0
-940 5025 -5022 0
5025 -5023 0
-940 -5023 0
-943 5026 0
5026 -5024 0
-943 5027 -5024 0
5027 -5025 0
-943 -5025 0
-948 5028 0
5028 -5026 0
-948 5029 -5026 0
5029 -5027 0
-948 -5027 0
-951 5030 0
5030 -5028 0
-951 5031 -5028 0
5031 -5029 0
-951 -5029 0
-954 5032 0
5032 -5030 0
-954 5033 -5030 0
5033 -5031 0
-954 -5031 0
-957 5034 0
5034 -5032 0
-957 5035 -5032 0
5035 -5033 0
-957 -5033 0
-960 5036 0
5036 -5034 0
-960 5037 -5034 0
5037 -5035 0
-960 -5035 0
-963 5038 0
5038 -5036 0
-963 5039 -5036 0
5039 -5037 0
-963 -5037 0
-966 5040 0
5040 -5038 0
-966 5041 -5038 0
5041 -5039 0
-966 -5039 0
-969 5042 0
5042 -5040 0
-969 5043 -5040 0
5043 -5041 0
-969 -5041 0
-972 5044 0
5044 -5042 0
-972 5045 -5042 0
5045 -5043 0
-972 -5043 0
-975 5046 0
5046 -5044 0
-975 5047 -5044 0
5047 -5045 0
-975 -5045 0
-978 5048 0
5048 -5046 0
-978 5049 -5046 0
5049 -5047 0
-978 -5047 0
-981 5050 0
5050 -5048 0
-981 5051 -5048 0
5051 -5049 0
-981 -5049 0
-984 5052 0
5052 -5050 0
-984 5053 -5050 0
5053 -5051 0
-984 -5051 0
-987 5054 0
5054 -5052 0
-987 5055 -5052 0
5055 -5053 0
-987 -5053 0
-990 5056 0
5056 -5054 0
-990 5057 -5054 0
5057 -5055 0
-990 -5055 0
-993 5058 0
5058 -5056 0
-993 5059 -5056 0
5059 -5057 0
-993 -5057 0
-996 5060 0
5060 -5058 0
-996 5061 -5058 0
5061 -5059 0
-996 -5059 0
-999 5062 0
5062 -5060 0
-999 5063 -5060 0
5063 -5061 0
-999 -5061 0
-1002 5064 0
5064 -5062 0
-1002 5065 -5062 0
5065 -5063 0
-1002 -5063 0
-1005 5066 0
5066 -5064 0
-1005 5067 -5064 0
5067 -5065 0
-1005 -5065 0
-1010 5068 0
5068 -5066 0
-1010 5069 -5066 0
5069 -5067 0
-1010 -5067 0
-1013 5070 0
5070 -5068 0
-1013 5071 -5068 0
5071 -5069 0
-1013 -5069 0
-1016 5072 0
5072 -5070 0
-1016 5073 -5070 0
5073 -5071 0
-1016 -5071 0
-1019 5074 0
5074 -5072 0
-1019 5075 -5072 0
5075 -5073 0
-1019 -5073 0
-1022 5076 0
5076 -5074 0
-1022 5077 -5074 0
5077 -5075 0
-1022 -5075 0
-1025 5078 0
5078 -5076 0
-1025 5079 -5076 0
5079 -5077 0
-1025 -5077 0
-1028 5080 0
5080 -5078 0
-1028 5081 -5078 0
5081 -5079 0
-1028 -5079 0
-1031 5082 0
5082 -5080 0
-1031 5083 -5080 0
5083 -5081 0
-1031 -5081 0
-1034 5084 0
5084 -5082 0
-1034 5085 -5082 0
5085 -5083 0
-1034 -5083 0
-1037 5086 0
5086 -5084 0
-1037 5087 -5084 0
5087 -5085 0
-1037 -5085 0
-1040 5088 0
5088 -5086 0
-1040 5089 -5086 0
5089 -5087 0
-1040 -5087 0
-1043 5090 0
5090 -5088 0
-1043 5091 -5088 0
5091 -5089 0
-1043 -5089 0
-1046 5092 0
5092 -5090 0
-1046 5093 -5090 0
5093 -5091 0
-1046 -5091 0
-1049 5094 0
5094 -5092 0
-1049 5095 -5092 0
5095 -5093 0
-1049 -5093 0
-1052 5096 0
5096 -5094 0
-1052 5097 -5094 0
5097 -5095 0
-1052 -5095 0
-1055 5098 0
5098 -5096 0
-1055 5099 -5096 0
5099 -5097 0
-1055 -5097 0
-1058 5100 0
5100 -5098 0
-1058 5101 -5098 0
5101 -5099 0
-1058 -5099 0
-1061 5102 0
5102 -5100 0
-1061 5103 -5100 0
5103 -5101 0
-1061 -5101 0
-1064 5104 0
5104 -5102 0
-1064 5105 -5102 0
5105 -5103 0
-1064 -5103 0
-1067 5106 0
5106 -5104 0
-1067 5107 -5104 0
5107 -5105 0
-1067 -5105 0
-1072 5108 0
5108 -5106 0
-1072 5109 -5106 0
5109 -5107 0
-1072 -5107 0
-1075 5110 0
5110 -5108 0
-1075 5111 -5108 0
5111 -5109 0
-1075 -5109 0
-1078 5112 0
5112 -5110 0
-1078 5113 -5110 0
5113 -5111 0
-1078 -5111 0
-1081 5114 0
5114 -5112 0
-1081 5115 -5112 0
5115 -5113 0
-1081 -5113 0
-1084 5116 0
5116 -5114 0
-1084 5117 -5114 0
5117 -5115 0
-1084 -5115 0
-1087 5118 0
5118 -5116 0
-1087 5119 -5116 0
5119 -5117 0
-1087 -5117 0
-1090 5120 0
5120 -5118 0
-1090 5121 -5118 0
5121 -5119 0
-1090 -5119 0
-1093 5122 0
5122 -5120 0
-1093 5123 -5120 0
5123 -5121 0
-1093 -5121 0
-1096 5124 0
5124 -5122 0
-1096 5125 -5122 0
5125 -5123 0
-1096 -5123 0
-1099 5126 0
5126 -5124 0
-1099 5127 -5124 0
5127 -5125 0
-1099 -5125 0
-1102 5128 0
5128 -5126 0
-1102 5129 -5126 0
5129 -5127 0
-1102 -5127 0
-1105 5130 0
5130 -5128 0
-1105 5131 -5128 0
5131 -5129 0
-1105 -5129 0
-1108 5132 0
5132 -5130 0
-1108 5133 -5130 0
5133 -5131 0
-1108 -5131 0
-1111 5134 0
5134 -5132 0
-1111 5135 -5132 0
5135 -5133 0
-1111 -5133 0
-1114 5136 0
5136 -5134 0
-1114 5137 -5134 0
5137 -5135 0
-1114 -5135 0
-1117 5138 0
5138 -5136 0
-1117 5139 -5136 0
5139 -5137 0
-1117 -5137 0
-1120 5140 0
5140 -5138 0
-1120 5141 -5138 0
5141 -5139 0
-1120 -5139 0
-1123 5142 0
5142 -5140 0
-1123 5143 -5140 0
5143 -5141 0
-1123 -5141 0
-1126 5144 0
5144 -5142 0
-1126 5145 -5142 0
5145 -5143 0
-1126 -5143 0
-1129 5146 0
5146 -5144 0
-1129 5147 -5144 0
5147 -5145 0
-1129 -5145 0
-1134 5148 0
5148 -5146 0
-1134 5149 -5146 0
5149 -5147 0
-1134 -5147 0
-1137 5150 0
5150 -5148 0
-1137 5151 -5148 0
5151 -5149 0
-1137 -5149 0
-1140 5152 0
5152 -5150 0
-1140 5153 -5150 0
5153 -5151 0
-1140 -5151 0
-1143 5154 0
5154 -5152 0
-1143 5155 -5152 0
5155 -5153 0
-1143 -5153 0
-1146 5156 0
5156 -5154 0
-1146 5157 -5154 0
5157 -5155 0
-1146 -5155 0
-1149 5158 0
5158 -5156 0
-1149 5159 -5156 0
5159 -5157 0
-1149 -5157 0
-1152 5160 0
5160 -5158 0
-1152 5161 -5158 0
5161 -5159 0
-1152 -5159 0
-1155 5162 0
5162 -5160 0
-1155 5163 -5160 0
5163 -5161 0
-1155 -5161 0
-1158 5164 0
5164 -5162 0
-1158 5165 -5162 0
5165 -5163 0
-1158 -5163 0
-1161 5166 0
5166 -5164 0
-1161 5167 -5164 0
5167 -5165 0
-1161 -5165 0
-1164 5168 0
5168 -5166 0
-1164 5169 -5166 0
5169 -5167 0
-1164 -5167 0
-1167 5170 0
5170 -5168 0
-1167 5171 -5168 0
5171 -5169 0
-1167 -5169 0
-1170 5172 0
5172 -5170 0
-1170 5173 -5170 0
5173 -5171 0
-1170 -5171 0
-1173 5174 0
5174 -5172 0
-1173 5175 -5172 0
5175 -5173 0
-1173 -5173 0
-1176 5176 0
5176 -5174 0
-1176 5177 -5174 0
5177 -5175 0
-1176 -5175 0
-1179 5178 0
5178 -5176 0
-1179 5179 -5176 0
5179 -5177 0
-1179 -5177 0
-1182 5180 0
5180 -5178 0
-1182 5181 -5178 0
5181 -5179 0
-1182 -5179 0
-1185 5182 0
5182 -5180 0
-1185 5183 -5180 0
5183 -5181 0
-1185 -5181 0
-1188 5184 0
5184 -5182 0
-1188 5185 -5182 0
5185 -5183 0
-1188 -5183 0
-1191 5186 0
5186 -5184 0
-1191 5187 -5184 0
5187 -5185 0
-1191 -5185 0
-1196 5188 0
5188 -5186 0
-1196 5189 -5186 0
5189 -5187 0
-1196 -5187 0
-1199 5190 0
5190 -5188 0
-1199 5191 -5188 0
5191 -5189 0
-1199 -5189 0
-1202 5192 0
5192 -5190 0
-1202 5193 -5190 0
5193 -5191 0
-1202 -5191 0
-1205 5194 0
5194 -5192 0
-1205 5195 -5192 0
5195 -5193 0
-1205 -5193 0
-1208 5196 0
5196 -5194 0
-1208 5197 -5194 0
5197 -5195 0
-1208 -5195 0
-1211 5198 0
5198 -5196 0
-1211 5199 -5196 0
5199 -5197 0
-1211 -5197 0
-1214 5200 0
5200 -5198 0
-1214 5201 -5198 0
5201 -5199 0
-1214 -5199 0
-1217 5202 0
5202 -5200 0
-1217 5203 -5200 0
5203 -5201 0
-1217 -5201 0
-1220 5204 0
5204 -5202 0
-1220 5205 -5202 0
5205 -5203 0
-1220 -5203 0
-1223 5206 0
5206 -5204 0
-1223 5207 -5204 0
5207 -5205 0
-1223 -5205 0
-1226 5208 0
5208 -5206 0
-1226 5209 -5206 0
5209 -5207 0
-1226 -5207 0
-1229 5210 0
5210 -5208 0
-1229 5211 -5208 0
5211 -5209 0
-1229 -5209 0
-1232 5212 0
5212 -5210 0
-1232 5213 -5210 0
5213 -5211 0
-1232 -5211 0
-1235 5214 0
5214 -5212 0
-1235 5215 -5212 0
5215 -5213 0
-1235 -5213 0
-1238 5216 0
5216 -5214 0
-1238 5217 -5214 0
5217 -5215 0
-1238 -5215 0
-1241 5218 0
5218 -5216 0
-1241 5219 -5216 0
5219 -5217 0
-1241 -5217 0
-1244 5220 0
5220 -5218 0
-1244 5221 -5218 0
5221 -5219 0
-1244 -5219 0
-1247 5222 0
5222 -5220 0
-1247 5223 -5220 0
5223 -5221 0
-1247 -5221 0
-1250 5224 0
5224 -5222 0
-1250 5225 -5222 0
5225 -5223 0
-1250 -5223 0
-1253 5226 0
5226 -5224 0
-1253 5227 -5224 0
5227 -5225 0
-1253 -5225 0
-1258 5228 0
5228 -5226 0
-1258 5229 -5226 0
5229 -5227 0
-1258 -5227 0
-1261 5230 0
5230 -5228 0
-1261 5231 -5228 0
5231 -5229 0
-1261 -5229 0
-1264 5232 0
5232 -5230 0
-1264 5233 -5230 0
5233 -5231 0
-1264 -5231 0
-1267 5234 0
5234 -5232 0
-1267 5235 -5232 0
5235 -5233 0
-1267 -5233 0
-1270 5236 0
5236 -5234 0
-1270 5237 -5234 0
5237 -5235 0
-1270 -5235 0
-1273 5238 0
5238 -5236 0
-1273 5239 -5236 0
5239 -5237 0
-1273 -5237 0
-1276 5240 0
5240 -5238 0
-1276 5241 -5238 0
5241 -5239 0
-1276 -5239 0
-1279 5242 0
5242 -5240 0
-1279 5243 -5240 0
5243 -5241 0
-1279 -5241 0
-1282 5244 0
5244 -5242 0
-1282 5245 -5242 0
5245 -5243 0
-1282 -5243 0
-1285 5246 0
5246 -5244 0
-1285 5247 -5244 0
5247 -5245 0
-1285 -5245 0
-1288 5248 0
5248 -5246 0
-1288 5249 -5246 0
5249 -5247 0
-1288 -5247 0
-1291 5250 0
5250 -5248 0
-1291 5251 -5248 0
5251 -5249 0
-1291 -5249 0
-1294 5252 0
5252 -5250 0
-1294 5253 -5250 0
5253 -5251 0
-1294 -5251 0
-1297 5254 0
5254 -5252 0
-1297 5255 -5252 0
5255 -5253 0
-1297 -5253 0
-1300 5256 0
5256 -5254 0
-1300 5257 -5254 0
5257 -5255 0
-1300 -5255 0
-1303 5258 0
5258 -5256 0
-1303 5259 -5256 0
5259 -5257 0
-1303 -5257 0
-1306 5260 0
5260 -5258 0
-1306 5261 -5258 0
5261 -5259 0
-1306 -5259 0
-1309 5262 0
5262 -5260 0
-1309 5263 -5260 0
5263 -5261 0
-1309 -5261 0
-1312 5264 0
5264 -5262 0
-1312 5265 -5262 0
5265 -5263 0
-1312 -5263 0
-1315 5266 0
5266 -5264 0
-1315 5267 -5264 0
5267 -5265 0
-1315 -5265 0
-1320 5268 0
5268 -5266 0
-1320 5269 -5266 0
5269 -5267 0
-1320 -5267 0
-1323 5270 0
5270 -5268 0
-1323 5271 -5268 0
5271 -5269 0
-1323 -5269 0
-1326 5272 0
5272 -5270 0
-1326 5273 -5270 0
5273 -5271 0
-1326 -5271 0
-1329 5274 0
5274 -5272 0
-1329 5275 -5272 0
5275 -5273 0
-1329 -5273 0
-1332 5276 0
5276 -5274 0
-1332 5277 -5274 0
5277 -5275 0
-1332 -5275 0
-1335 5278 0
5278 -5276 0
-1335 5279 -5276 0
5279 -5277 0
-1335 -5277 0
-1338 5280 0
5280 -5278 0
-1338 5281 -5278 0
5281 -5279 0
-1338 -5279 0
-1341 5282 0
5282 -5280 0
-1341 5283 -5280 0
5283 -5281 0
-1341 -5281 0
-1344 5284 0
5284 -5282 0
-1344 5285 -5282 0
5285 -5283 0
-1344 -5283 0
-1347 5286 0
5286 -5284 0
-1347 5287 -5284 0
5287 -5285 0
-1347 -5285 0
-1350 5288 0
5288 -5286 0
-1350 5289 -5286 0
5289 -5287 0
-1350 -5287 0
-1353 5290 0
5290 -5288 0
-1353 5291 -5288 0
5291 -5289 0
-1353 -5289 0
-1356 5292 0
5292 -5290 0
-1356 5293 -5290 0
5293 -5291 0
-1356 -5291 0
-1359 5294 0
5294 -5292 0
-1359 5295 -5292 0
5295 -5293 0
-1359 -5293 0
-1362 5296 0
5296 -5294 0
-1362 5297 -5294 0
5297 -5295 0
-1362 -5295 0
-1365 5298 0
5298 -5296 0
-1365 5299 -5296 0
5299 -5297 0
-1365 -5297 0
-1368 5300 0
5300 -5298 0
-1368 5301 -5298 0
5301 -5299 0
-1368 -5299 0
-1371 5302 0
5302 -5300 0
-1371 5303 -5300 0
5303 -5301 0
-1371 -5301 0
-1374 5304 0
5304 -5302 0
-1374 5305 -5302 0
5305 -5303 0
-1374 -5303 0
-1377 5306 0
5306 -5304 0
-1377 5307 -5304 0
5307 -5305 0
-1377 -5305 0
-1382 5308 0
5308 -5306 0
-1382 5309 -5306 0
5309 -5307 0
-1382 -5307 0
-1385 5310 0
5310 -5308 0
-1385 5311 -5308 0
5311 -5309 0
-1385 -5309 0
-1388 5312 0
5312 -5310 0
-1388 5313 -5310 0
5313 -5311 0
-1388 -5311 0
-1391 5314 0
5314 -5312 0
-1391 5315 -5312 0
5315 -5313 0
-1391 -5313 0
-1394 5316 0
5316 -5314 0
-1394 5317 -5314 0
5317 -5315 0
-1394 -5315 0
-1397 5318 0
5318 -5316 0
-1397 5319 -5316 0
5319 -5317 0
-1397 -5317 0
-1400 5320 0
5320 -5318 0
-1400 5321 -5318 0
5321 -5319 0
-1400 -5319 0
-1403 5322 0
5322 -5320 0
-1403 5323 -5320 0
5323 -5321 0
-1403 -5321 0
-1406 5324 0
5324 -5322 0
-1406 5325 -5322 0
5325 -5323 0
-1406 -5323 0
-1409 5326 0
5326 -5324 0
-1409 5327 -5324 0
5327 -5325 0
-1409 -5325 0
-1412 5328 0
5328 -5326 0
-1412 5329 -5326 0
5329 -5327 0
-1412 -5327 0
-1415 5330 0
5330 -5328 0
-1415 5331 -5328 0
5331 -5329 0
-1415 -5329 0
-1418 5332 0
5332 -5330 0
-1418 5333 -5330 0
5333 -5331 0
-1418 -5331 0
-1421 5334 0
5334 -5332 0
-1421 5335 -5332 0
5335 -5333 0
-1421 -5333 0
-1424 5336 0
5336 -5334 0
-1424 5337 -5334 0
5337 -5335 0
-1424 -5335 0
-1427 5338 0
5338 -5336 0
-1427 5339 -5336 0
5339 -5337 0
-1427 -5337 0
-1430 5340 0
5340 -5338 0
-1430 5341 -5338 0
5341 -5339 0
-1430 -5339 0
-1433 5342 0
5342 -5340 0
-1433 5343 -5340 0
5343 -5341 0
-1433 -5341 0
-1436 5344 0
5344 -5342 0
-1436 5345 -5342 0
5345 -5343 0
-1436 -5343 0
-1439 5346 0
5346 -5344 0
-1439 5347 -5344 0
5347 -5345 0
-1439 -5345 0
-1444 5348 0
5348 -5346 0
-1444 5349 -5346 0
5349 -5347 0
-1444 -5347 0
-1447 5350 0
5350 -5348 0
-1447 5351 -5348 0
5351 -5349 0
-1447 -5349 0
-1450 5352 0
5352 -5350 0
-1450 5353 -5350 0
5353 -5351 0
-1450 -5351 0
-1453 5354 0
5354 -5352 0
-1453 5355 -5352 0
5355 -5353 0
-1453 -5353 0
-1456 5356 0
5356 -5354 0
-1456 5357 -5354 0
5357 -5355 0
-1456 -5355 0
-1459 5358 0
5358 -5356 0
-1459 5359 -5356 0
5359 -5357 0
-1459 -5357 0
-1462 5360 0
5360 -5358 0
-1462 5361 -5358 0
5361 -5359 0
-1462 -5359 0
-1465 5362 0
5362 -5360 0
-1465 5363 -5360 0
5363 -5361 0
-1465 -5361 0
-1468 5364 0
5364 -5362 0
-1468 5365 -5362 0
5365 -5363 0
-1468 -5363 0
-1471 5366 0
5366 -5364 0
-1471 5367 -5364 0
5367 -5365 0
-1471 -5365 0
-1474 5368 0
5368 -5366 0
-1474 5369 -5366 0
5369 -5367 0
-1474 -5367 0
-1477 5370 0
5370 -5368 0
-1477 5371 -5368 0
5371 -5369 0
-1477 -5369 0
-1480 5372 0
5372 -5370 0
-1480 5373 -5370 0
5373 -5371 0
-1480 -5371 0
-1483 5374 0
5374 -5372 0
-1483 5375 -5372 0
5375 -5373 0
-1483 -5373 0
-1486 5376 0
5376 -5374 0
-1486 5377 -5374 0
5377 -5375 0
-1486 -5375 0
-1489 5378 0
5378 -5376 0
-1489 5379 -5376 0
5379 -5377 0
-1489 -5377 0
-1492 5380 0
5380 -5378 0
-1492 5381 -5378 0
5381 -5379 0
-1492 -5379 0
-1495 5382 0
5382 -5380 0
-1495 5383 -5380 0
5383 -5381 0
-1495 -5381 0
-1498 5384 0
5384 -5382 0
-1498 5385 -5382 0
5385 -5383 0
-1498 -5383 0
-1501 5386 0
5386 -5384 0
-1501 5387 -5384 0
5387 -5385 0
-1501 -5385 0
-1506 5388 0
5388 -5386 0
-1506 5389 -5386 0
5389 -5387 0
-1506 -5387 0
-1509 5390 0
5390 -5388 0
-1509 5391 -5388 0
5391 -5389 0
-1509 -5389 0
-1512 5392 0
5392 -5390 0
-1512 5393 -5390 0
5393 -5391 0
-1512 -5391 0
-1515 5394 0
5394 -5392 0
-1515 5395 -5392 0
5395 -5393 0
-1515 -5393 0
-1518 5396 0
5396 -5394 0
-1518 5397 -5394 0
5397 -5395 0
-1518 -5395 0
-1521 5398 0
5398 -5396 0
-1521 5399 -5396 0
5399 -5397 0
-1521 -5397 0
-1524 5400 0
5400 -5398 0
-1524 5401 -5398 0
5401 -5399 0
-1524 -5399 0
-1527 5402 0
5402 -5400 0
-1527 5403 -5400 0
5403 -5401 0
-1527 -5401 0
-1530 5404 0
5404 -5402 0
-1530 5405 -5402 0
5405 -5403 0
-1530 -5403 0
-1533 5406 0
5406 -5404 0
-1533 5407 -5404 0
5407 -5405 0
-1533 -5405 0
-1536 5408 0
5408 -5406 0
-1536 5409 -5406 0
5409 -5407 0
-1536 -5407 0
-1539 5410 0
5410 -5408 0
-1539 5411 -5408 0
5411 -5409 0
-1539 -5409 0
-1542 5412 0
5412 -5410 0
-1542 5413 -5410 0
5413 -5411 0
-1542 -5411 0
-1545 5414 0
5414 -5412 0
-1545 5415 -5412 0
5415 -5413 0
-1545 -5413 0
-1548 5416 0
5416 -5414 0
-1548 5417 -5414 0
5417 -5415 0
-1548 -5415 0
-1551 5418 0
5418 -5416 0
-1551 5419 -5416 0
5419 -5417 0
-1551 -5417 0
-1554 5420 0
5420 -5418 0
-1554 5421 -5418 0
5421 -5419 0
-1554 -5419 0
-1557 5422 0
5422 -5420 0
-1557 5423 -5420 0
5423 -5421 0
-1557 -5421 0
-1560 5424 0
5424 -5422 0
-1560 5425 -5422 0
5425 -5423 0
-1560 -5423 0
-1563 5426 0
5426 -5424 0
-1563 5427 -5424 0
5427 -5425 0
-1563 -5425 0
-1568 5428 0
5428 -5426 0
-1568 5429 -5426 0
5429 -5427 0
-1568 -5427 0
-1571 5430 0
5430 -5428 0
-1571 5431 -5428 0
5431 -5429 0
-1571 -5429 0
-1574 5432 0
5432 -5430 0
-1574 5433 -5430 0
5433 -5431 0
-1574 -5431 0
-1577 5434 0
5434 -5432 0
-1577 5435 -5432 0
5435 -5433 0
-1577 -5433 0
-1580 5436 0
5436 -5434 0
-1580 5437 -5434 0
5437 -5435 0
-1580 -5435 0
-1583 5438 0
5438 -5436 0
-1583 5439 -5436 0
5439 -5437 0
-1583 -5437 0
-1586 5440 0
5440 -5438 0
-1586 5441 -5438 0
5441 -5439 0
-1586 -5439 0
-1589 5442 0
5442 -5440 0
-1589 5443 -5440 0
5443 -5441 0
-1589 -5441 0
-1592 5444 0
5444 -5442 0
-1592 5445 -5442 0
5445 -5443 0
-1592 -5443 0
-1595 5446 0
5446 -5444 0
-1595 5447 -5444 0
5447 -5445 0
-1595 -5445 0
-1598 5448 0
5448 -5446 0
-1598 5449 -5446 0
5449 -5447 0
-1598 -5447 0
-1601 5450 0
5450 -5448 0
-1601 5451 -5448 0
5451 -5449 0
-1601 -5449 0
-1604 5452 0
5452 -5450 0
-1604 5453 -5450 0
5453 -5451 0
-1604 -5451 0
-1607 5454 0
5454 -5452 0
-1607 5455 -5452 0
5455 -5453 0
-1607 -5453 0
-1610 5456 0
5456 -5454 0
-1610 5457 -5454 0
5457 -5455 0
-1610 -5455 0
-1613 5458 0
5458 -5456 0
-1613 5459 -5456 0
5459 -5457 0
-1613 -5457 0
-1616 5460 0
5460 -5458 0
-1616 5461 -5458 0
5461 -5459 0
-1616 -5459 0
-1619 5462 0
5462 -5460 0
-1619 5463 -5460 0
5463 -5461 0
-1619 -5461 0
-1622 5464 0
5464 -5462 0
-1622 5465 -5462 0
5465 -5463 0
-1622 -5463 0
-1625 5466 0
5466 -5464 0
-1625 5467 -5464 0
5467 -5465 0
-1625 -5465 0
-1630 5468 0
5468 -5466 0
-1630 5469 -5466 0
5469 -5467 0
-1630 -5467 0
-1633 5470 0
5470 -5468 0
-1633 5471 -5468 0
5471 -5469 0
-1633 -5469 0
-1636 5472 0
5472 -5470 0
-1636 5473 -5470 0
5473 -5471 0
-1636 -5471 0
-1639 5474 0
5474 -5472 0
-1639 5475 -5472 0
5475 -5473 0
-1639 -5473 0
-1642 5476 0
5476 -5474 0
-1642 5477 -5474 0
5477 -5475 0
-1642 -5475 0
-1645 5478 0
5478 -5476 0
-1645 5479 -5476 0
5479 -5477 0
-1645 -5477 0
-1648 5480 0
5480 -5478 0
-1648 5481 -5478 0
5481 -5479 0
-1648 -5479 0
-1651 5482 0
5482 -5480 0
-1651 5483 -5480 0
5483 -5481 0
-1651 -5481 0
-1654 5484 0
5484 -5482 0
-1654 5485 -5482 0
5485 -5483 0
-1654 -5483 0
-1657 5486 0
5486 -5484 0
-1657 5487 -5484 0
5487 -5485 0
-1657 -5485 0
-1660 5488 0
5488 -5486 0
-1660 5489 -5486 0
5489 -5487 0
-1660 -5487 0
-1663 5490 0
5490 -5488 0
-1663 5491 -5488 0
5491 -5489 0
-1663 -5489 0
-1666 5492 0
5492 -5490 0
-1666 5493 -5490 0
5493 -5491 0
-1666 -5491 0
-1669 5494 0
5494 -5492 0
-1669 5495 -5492 0
5495 -5493 0
-1669 -5493 0
-1672 5496 0
5496 -5494 0
-1672 5497 -5494 0
5497 -5495 0
-1672 -5495 0
-1675 5498 0
5498 -5496 0
-1675 5499 -5496 0
5499 -5497 0
-1675 -5497 0
-1678 5500 0
5500 -5498 0
-1678 5501 -5498 0
5501 -5499 0
-1678 -5499 0
-1681 5502 0
5502 -5500 0
-1681 5503 -5500 0
5503 -5501 0
-1681 -5501 0
-1684 5504 0
5504 -5502 0
-1684 5505 -5502 0
5505 -5503 0
-1684 -5503 0
-1687 5506 0
5506 -5504 0
-1687 5507 -5504 0
5507 -5505 0
-1687 -5505 0
-1692 5508 0
5508 -5506 0
-1692 5509 -5506 0
5509 -5507 0
-1692 -5507 0
-1695 5510 0
5510 -5508 0
-1695 5511 -5508 0
5511 -5509 0
-1695 -5509 0
-1698 5512 0
5512 -5510 0
-1698 5513 -5510 0
5513 -5511 0
-1698 -5511 0
-1701 5514 0
5514 -5512 0
-1701 5515 -5512 0
5515 -5513 0
-1701 -5513 0
-1704 5516 0
5516 -5514 0
-1704 5517 -5514 0
5517 -5515 0
-1704 -5515 0
-1707 5518 0
5518 -5516 0
-1707 5519 -5516 0
5519 -5517 0
-1707 -5517 0
-1710 5520 0
5520 -5518 0
-1710 5521 -5518 0
5521 -5519 0
-1710 -5519 0
-1713 5522 0
5522 -5520 0
-1713 5523 -5520 0
5523 -5521 0
-1713 -5521 0
-1716 5524 0
5524 -5522 0
-1716 5525 -5522 0
5525 -5523 0
-1716 -5523 0
-1719 5526 0
5526 -5524 0
-1719 5527 -5524 0
5527 -5525 0
-1719 -5525 0
-1722 5528 0
5528 -5526 0
-1722 5529 -5526 0
5529 -5527 0
-1722 -5527 0
-1725 5530 0
5530 -5528 0
-1725 5531 -5528 0
5531 -5529 0
-1725 -5529 0
-1728 5532 0
5532 -5530 0
-1728 5533 -5530 0
5533 -5531 0
-1728 -5531 0
-1731 5534 0
5534 -5532 0
-1731 5535 -5532 0
5535 -5533 0
-1731 -5533 0
-1734 5536 0
5536 -5534 0
-1734 5537 -5534 0
5537 -5535 0
-1734 -5535 0
-1737 5538 0
5538 -5536 0
-1737 5539 -5536 0
5539 -5537 0
-1737 -5537 0
-1740 5540 0
5540 -5538 0
-1740 5541 -5538 0
5541 -5539 0
-1740 -5539 0
-1743 5542 0
5542 -5540 0
-1743 5543 -5540 0
5543 -5541 0
-1743 -5541 0
-1746 5544 0
5544 -5542 0
-1746 5545 -5542 0
5545 -5543 0
-1746 -5543 0
-1749 5546 0
5546 -5544 0
-1749 5547 -5544 0
5547 -5545 0
-1749 -5545 0
-1754 5548 0
5548 -5546 0
-1754 5549 -5546 0
5549 -5547 0
-1754 -5547 0
-1757 5550 0
5550 -5548 0
-1757 5551 -5548 0
5551 -5549 0
-1757 -5549 0
-1760 5552 0
5552 -5550 0
-1760 5553 -5550 0
5553 -5551 0
-1760 -5551 0
-1763 5554 0
5554 -5552 0
-1763 5555 -5552 0
5555 -5553 0
-1763 -5553 0
-1766 5556 0
5556 -5554 0
-1766 5557 -5554 0
5557 -5555 0
-1766 -5555 0
-1769 5558 0
5558 -5556 0
-1769 5559 -5556 0
5559 -5557 0
-1769 -5557 0
-1772 5560 0
5560 -5558 0
-1772 5561 -5558 0
5561 -5559 0
-1772 -5559 0
-1775 5562 0
5562 -5560 0
-1775 5563 -5560 0
5563 -5561 0
-1775 -5561 0
-1778 5564 0
5564 -5562 0
-1778 5565 -5562 0
5565 -5563 0
-1778 -5563 0
-1781 5566 0
5566 -5564 0
-1781 5567 -5564 0
5567 -5565 0
-1781 -5565 0
-1784 5568 0
5568 -5566 0
-1784 5569 -5566 0
5569 -5567 0
-1784 -5567 0
-1787 5570 0
5570 -5568 0
-1787 5571 -5568 0
5571 -5569 0
-1787 -5569 0
-1790 5572 0
5572 -5570 0
-1790 5573 -5570 0
5573 -5571 0
-1790 -5571 0
-1793 5574 0
5574 -5572 0
-1793 5575 -5572 0
5575 -5573 0
-1793 -5573 0
-1796 5576 0
5576 -5574 0
-1796 5577 -5574 0
5577 -5575 0
-1796 -5575 0
-1799 5578 0
5578 -5576 0
-1799 5579 -5576 0
5579 -5577 0
-1799 -5577 0
-1802 5580 0
5580 -5578 0
-1802 5581 -5578 0
5581 -5579 0
-1802 -5579 0
-1805 5582 0
5582 -5580 0
-1805 5583 -5580 0
5583 -5581 0
-1805 -5581 0
-1808 5584 0
5584 -5582 0
-1808 5585 -5582 0
5585 -5583 0
-1808 -5583 0
-1811 5586 0
5586 -5584 0
-1811 5587 -5584 0
5587 -5585 0
-1811 -5585 0
-1816 5588 0
5588 -5586 0
-1816 5589 -5586 0
5589 -5587 0
-1816 -5587 0
-1819 5590 0
5590 -5588 0
-1819 5591 -5588 0
5591 -5589 0
-1819 -5589 0
-1822 5592 0
5592 -5590 0
-1822 5593 -5590 0
5593 -5591 0
-1822 -5591 0
-1825 5594 0
5594 -5592 0
-1825 5595 -5592 0
5595 -5593 0
-1825 -5593 0
-1828 5596 0
5596 -5594 0
-1828 5597 -5594 0
5597 -5595 0
-1828 -5595 0
-1831 5598 0
5598 -5596 0
-1831 5599 -5596 0
5599 -5597 0
-1831 -5597 0
-1834 5600 0
5600 -5598 0
-1834 5601 -5598 0
5601 -5599 0
-1834 -5599 0
-1837 5602 0
5602 -5600 0
-1837 5603 -5600 0
5603 -5601 0
-1837 -5601 0
-1840 5604 0
5604 -5602 0
-1840 5605 -5602 0
5605 -5603 0
-1840 -5603 0
-1843 5606 0
5606 -5604 0
-1843 5607 -5604 0
5607 -5605 0
-1843 -5605 0
-1846 5608 0
5608 -5606 0
-1846 5609 -5606 0
5609 -5607 0
-1846 -5607 0
-1849 5610 0
5610 -5608 0
-1849 5611 -5608 0
5611 -5609 0
-1849 -5609 0
-1852 5612 0
5612 -5610 0
-1852 5613 -5610 0
5613 -5611 0
-1852 -5611 0
-1855 5614 0
5614 -5612 0
-1855 5615 -5612 0
5615 -5613 0
-1855 -5613 0
-1858 5616 0
5616 -5614 0
-1858 5617 -5614 0
5617 -5615 0
-1858 -5615 0
-1861 5618 0
5618 -5616 0
-1861 5619 -5616 0
5619 -5617 0
-1861 -5617 0
-1864 5620 0
5620 -5618 0
-1864 5621 -5618 0
5621 -5619 0
-1864 -5619 0
-1867 5622 0
5622 -5620 0
-1867 5623 -5620 0
5623 -5621 0
-1867 -5621 0
-1870 5624 0
5624 -5622 0
-1870 5625 -5622 0
5625 -5623 0
-1870 -5623 0
-1873 5626 0
5626 -5624 0
-1873 5627 -5624 0
5627 -5625 0
-1873 -5625 0
-1878 5628 0
5628 -5626 0
-1878 5629 -5626 0
5629 -5627 0
-1878 -5627 0
-1881 5630 0
5630 -5628 0
-1881 5631 -5628 0
5631 -5629 0
-1881 -5629 0
-1884 5632 0
5632 -5630 0
-1884 5633 -5630 0
5633 -5631 0
-1884 -5631 0
-1887 5634 0
5634 -5632 0
-1887 5635 -5632 0
5635 -5633 0
-1887 -5633 0
-1890 5636 0
5636 -5634 0
-1890 5637 -5634 0
5637 -5635 0
-1890 -5635 0
-1893 5638 0
5638 -5636 0
-1893 5639 -5636 0
5639 -5637 0
-1893 -5637 0
-1896 5640 0
5640 -5638 0
-1896 5641 -5638 0
5641 -5639 0
-1896 -5639 0
-1899 5642 0
5642 -5640 0
-1899 5643 -5640 0
5643 -5641 0
-1899 -5641 0
-1902 5644 0
5644 -5642 0
-1902 5645 -5642 0
5645 -5643 0
-1902 -5643 0
-1905 5646 0
5646 -5644 0
-1905 5647 -5644 0
5647 -5645 0
-1905 -5645 0
-1908 5648 0
5648 -5646 0
-1908 5649 -5646 0
5649 -5647 0
-1908 -5647 0
-1911 5650 0
5650 -5648 0
-1911 5651 -5648 0
5651 -5649 0
-1911 -5649 0
-1914 5652 0
5652 -5650 0
-1914 5653 -5650 0
5653 -5651 0
-1914 -5651 0
-1917 5654 0
5654 -5652 0
-1917 5655 -5652 0
5655 -5653 0
-1917 -5653 0
-1920 5656 0
5656 -5654 0
-1920 5657 -5654 0
5657 -5655 0
-1920 -5655 0
-1923 5658 0
5658 -5656 0
-1923 5659 -5656 0
5659 -5657 0
-1923 -5657 0
-1926 5660 0
5660 -5658 0
-1926 5661 -5658 0
5661 -5659 0
-1926 -5659 0
-1929 5662 0
5662 -5660 0
-1929 5663 -5660 0
5663 -5661 0
-1929 -5661 0
-1932 5664 0
5664 -5662 0
-1932 5665 -5662 0
5665 -5663 0
-1932 -5663 0
-1935 5666 0
5666 -5664 0
-1935 5667 -5664 0
5667 -5665 0
-1935 -5665 0
-1940 5668 0
5668 -5666 0
-1940 5669 -5666 0
5669 -5667 0
-1940 -5667 0
-1943 5670 0
5670 -5668 0
-1943 5671 -5668 0
5671 -5669 0
-1943 -5669 0
-1946 5672 0
5672 -5670 0
-1946 5673 -5670 0
5673 -5671 0
-1946 -5671 0
-1949 5674 0
5674 -5672 0
-1949 5675 -5672 0
5675 -5673 0
-1949 -5673 0
-1952 5676 0
5676 -5674 0
-1952 5677 -5674 0
5677 -5675 0
-1952 -5675 0
-1955 5678 0
5678 -5676 0
-1955 5679 -5676 0
5679 -5677 0
-1955 -5677 0
-1958 5680 0
5680 -5678 0
-1958 5681 -5678 0
5681 -5679 0
-1958 -5679 0
-1961 5682 0
5682 -5680 0
-1961 5683 -5680 0
5683 -5681 0
-1961 -5681 0
-1964 5684 0
5684 -5682 0
-1964 5685 -5682 0
5685 -5683 0
-1964 -5683 0
-1967 5686 0
5686 -5684 0
-1967 5687 -5684 0
5687 -5685 0
-1967 -5685 0
-1970 5688 0
5688 -5686 0
-1970 5689 -5686 0
5689 -5687 0
-1970 -5687 0
-1973 5690 0
5690 -5688 0
-1973 5691 -5688 0
5691 -5689 0
-1973 -5689 0
-1976 5692 0
5692 -5690 0
-1976 5693 -5690 0
5693 -5691 0
-1976 -5691 0
-1979 5694 0
5694 -5692 0
-1979 5695 -5692 0
5695 -5693 0
-1979 -5693 0
-1982 5696 0
5696 -5694 0
-1982 5697 -5694 0
5697 -5695 0
-1982 -5695 0
-1985 5698 0
5698 -5696 0
-1985 5699 -5696 0
5699 -5697 0
-1985 -5697 0
-1988 5700 0
5700 -5698 0
-1988 5701 -5698 0
5701 -5699 0
-1988 -5699 0
-1991 5702 0
5702 -5700 0
-1991 5703 -5700 0
5703 -5701 0
-1991 -5701 0
-1994 5704 0
5704 -5702 0
-1994 5705 -5702 0
5705 -5703 0
-1994 -5703 0
-1997 5706 0
5706 -5704 0
-1997 5707 -5704 0
5707 -5705 0
-1997 -5705 0
-2000 5708 0
5708 -5706 0
-2000 5709 -5706 0
5709 -5707 0
-2000 -5707 0
-2003 5710 0
5710 -5708 0
-2003 5711 -5708 0
5711 -5709 0
-2003 -5709 0
-2006 5712 0
5712 -5710 0
-2006 5713 -5710 0
5713 -5711 0
-2006 -5711 0
-2009 5714 0
5714 -5712 0
-2009 5715 -5712 0
5715 -5713 0
-2009 -5713 0
-2012 5716 0
5716 -5714 0
-2012 5717 -5714 0
5717 -5715 0
-2012 -5715 0
-2015 5718 0
5718 -5716 0
-2015 5719 -5716 0
5719 -5717 0
-2015 -5717 0
-2018 5720 0
5720 -5718 0
-2018 5721 -5718 0
5721 -5719 0
-2018 -5719 0
-2021 5722 0
5722 -5720 0
-2021 5723 -5720 0
5723 -5721 0
-2021 -5721 0
-2024 5724 0
5724 -5722 0
-2024 5725 -5722 0
5725 -5723 0
-2024 -5723 0
-2027 5726 0
5726 -5724 0
-2027 5727 -5724 0
5727 -5725 0
-2027 -5725 0
-2030 5728 0
5728 -5726 0
-2030 5729 -5726 0
5729 -5727 0
-2030 -5727 0
5730 -2033 0
5730 -5728 0
5731 -2033 -5728 0
5731 -5729 0
-2033 -5729 0
5732 -2034 0
5732 -5730 0
5733 -2034 -5730 0
5733 -5731 0
-2034 -5731 0
5734 -2035 0
5734 -5732 0
5735 -2035 -5732 0
5735 -5733 0
-2035 -5733 0
5736 -2036 0
5736 -5734 0
5737 -2036 -5734 0
5737 -5735 0
-2036 -5735 0
5738 -2037 0
5738 -5736 0
5739 -2037 -5736 0
5739 -5737 0
-2037 -5737 0
5740 -2038 0
5740 -5738 0
5741 -2038 -5738 0
5741 -5739 0
-2038 -5739 0
5742 -2039 0
5742 -5740 0
5743 -2039 -5740 0
5743 -5741 0
-2039 -5741 0
5744 -2040 0
5744 -5742 0
5745 -2040 -5742 0
5745 -5743 0
-2040 -5743 0
-2041 5746 0
5746 -5744 0
-2041 5747 -5744 0
5747 -5745 0
-2041 -5745 0
-2046 5748 0
5748 -5746 0
-2046 5749 -5746 0
5749 -5747 0
-2046 -5747 0
-2049 5750 0
5750 -5748 0
-2049 5751 -5748 0
5751 -5749 0
-2049 -5749 0
-2052 5752 0
5752 -5750 0
-2052 5753 -5750 0
5753 -5751 0
-2052 -5751 0
-2055 5754 0
5754 -5752 0
-2055 5755 -5752 0
5755 -5753 0
-2055 -5753 0
-2058 5756 0
5756 -5754 0
-2058 5757 -5754 0
5757 -5755 0
-2058 -5755 0
-2061 5758 0
5758 -5756 0
-2061 5759 -5756 0
5759 -5757 0
-2061 -5757 0
-2064 5760 0
5760 -5758 0
-2064 5761 -5758 0
5761 -5759 0
-2064 -5759 0
-2067 5762 0
5762 -5760 0
-2067 5763 -5760 0
5763 -5761 0
-2067 -5761 0
-2070 5764 0
5764 -5762 0
-2070 5765 -5762 0
5765 -5763 0
-2070 -5763 0
-2073 5766 0
5766 -5764 0
-2073 5767 -5764 0
5767 -5765 0
-2073 -5765 0
-2076 5768 0
5768 -5766 0
-2076 5769 -5766 0
5769 -5767 0
-2076 -5767 0
-2079 5770 0
5770 -5768 0
-2079 5771 -5768 0
5771 -5769 0
-2079 -5769 0
-2082 5772 0
5772 -5770 0
-2082 5773 -5770 0
5773 -5771 0
-2082 -5771 0
-2085 5774 0
5774 -5772 0
-2085 5775 -5772 0
5775 -5773 0
-2085 -5773 0
-2088 5776 0
5776 -5774 0
-2088 5777 -5774 0
5777 -5775 0
-2088 -5775 0
-2091 5778 0
5778 -5776 0
-2091 5779 -5776 0
5779 -5777 0
-2091 -5777 0
-2096 5780 0
5780 -5778 0
-2096 5781 -5778 0
5781 -5779 0
-2096 -5779 0
-2099 5782 0
5782 -5780 0
-2099 5783 -5780 0
5783 -5781 0
-2099 -5781 0
-2102 5784 0
5784 -5782 0
-2102 5785 -5782 0
5785 -5783 0
-2102 -5783 0
-2105 5786 0
5786 -5784 0
-2105 5787 -5784 0
5787 -5785 0
-2105 -5785 0
-2108 5788 0
5788 -5786 0
-2108 5789 -5786 0
5789 -5787 0
-2108 -5787 0
-2111 5790 0
5790 -5788 0
-2111 5791 -5788 0
5791 -5789 0
-2111 -5789 0
-2114 5792 0
5792 -5790 0
-2114 5793 -5790 0
5793 -5791 0
-2114 -5791 0
-2117 5794 0
5794 -5792 0
-2117 5795 -5792 0
5795 -5793 0
-2117 -5793 0
-2120 5796 0
5796 -5794 0
-2120 5797 -5794 0
5797 -5795 0
-2120 -5795 0
-2123 5798 0
5798 -5796 0
-2123 5799 -5796 0
5799 -5797 0
-2123 -5797 0
-2126 5800 0
5800 -5798 0
-2126 5801 -5798 0
5801 -5799 0
-2126 -5799 0
-2129 5802 0
5802 -5800 0
-2129 5803 -5800 0
5803 -5801 0
-2129 -5801 0
-2132 5804 0
5804 -5802 0
-2132 5805 -5802 0
5805 -5803 0
-2132 -5803 0
-2135 5806 0
5806 -5804 0
-2135 5807 -5804 0
5807 -5805 0
-2135 -5805 0
-2138 5808 0
5808 -5806 0
-2138 5809 -5806 0
5809 -5807 0
-2138 -5807 0
-2141 5810 0
5810 -5808 0
-2141 5811 -5808 0
5811 -5809 0
-2141 -5809 0
-2146 5812 0
5812 -5810 0
-2146 5813 -5810 0
5813 -5811 0
-2146 -5811 0
-2149 5814 0
5814 -5812 0
-2149 5815 -5812 0
5815 -5813 0
-2149 -5813 0
-2152 5816 0
5816 -5814 0
-2152 5817 -5814 0
5817 -5815 0
-2152 -5815 0
-2155 5818 0
5818 -5816 0
-2155 5819 -5816 0
5819 -5817 0
-2155 -5817 0
-2158 5820 0
5820 -5818 0
-2158 5821 -5818 0
5821 -5819 0
-2158 -5819 0
-2161 5822 0
5822 -5820 0
-2161 5823 -5820 0
5823 -5821 0
-2161 -5821 0
-2164 5824 0
5824 -5822 0
-2164 5825 -5822 0
5825 -5823 0
-2164 -5823 0
-2167 5826 0
5826 -5824 0
-2167 5827 -5824 0
5827 -5825 0
-2167 -5825 0
-2170 5828 0
5828 -5826 0
-2170 5829 -5826 0
5829 -5827 0
-2170 -5827 0
-2173 5830 0
5830 -5828 0
-2173 5831 -5828 0
5831 -5829 0
-2173 -5829 0
-2176 5832 0
5832 -5830 0
-2176 5833 -5830 0
5833 -5831 0
-2176 -5831 0
-2179 5834 0
5834 -5832 0
-2179 5835 -5832 0
5835 -5833 0
-2179 -5833 0
-2182 5836 0
5836 -5834 0
-2182 5837 -5834 0
5837 -5835 0
-2182 -5835 0
-2185 5838 0
5838 -5836 0
-2185 5839 -5836 0
5839 -5837 0
-2185 -5837 0
-2188 5840 0
5840 -5838 0
-2188 5841 -5838 0
5841 -5839 0
-2188 -5839 0
-2191 5842 0
5842 -5840 0
-2191 5843 -5840 0
5843 -5841 0
-2191 -5841 0
-2196 5844 0
5844 -5842 0
-2196 5845 -5842 0
5845 -5843 0
-2196 -5843 0
-2199 5846 0
5846 -5844 0
-2199 5847 -5844 0
5847 -5845 0
-2199 -5845 0
-2202 5848 0
5848 -5846 0
-2202 5849 -5846 0
5849 -5847 0
-2202 -5847 0
-2205 5850 0
5850 -5848 0
-2205 5851 -5848 0
5851 -5849 0
-2205 -5849 0
-2208 5852 0
5852 -5850 0
-2208 5853 -5850 0
5853 -5851 0
-2208 -5851 0
-2211 5854 0
5854 -5852 0
-2211 5855 -5852 0
5855 -5853 0
-2211 -5853 0
-2214 5856 0
5856 -5854 0
-2214 5857 -5854 0
5857 -5855 0
-2214 -5855 0
-2217 5858 0
5858 -5856 0
-2217 5859 -5856 0
5859 -5857 0
-2217 -5857 0
-2220 5860 0
5860 -5858 0
-2220 5861 -5858 0
5861 -5859 0
-2220 -5859 0
-2223 5862 0
5862 -5860 0
-2223 5863 -5860 0
5863 -5861 0
-2223 -5861 0
-2226 5864 0
5864 -5862 0
-2226 5865 -5862 0
5865 -5863 0
-2226 -5863 0
-2229 5866 0
5866 -5864 0
-2229 5867 -5864 0
5867 -5865 0
-2229 -5865 0
-2232 5868 0
5868 -5866 0
-2232 5869 -5866 0
5869 -5867 0
-2232 -5867 0
-2235 5870 0
5870 -5868 0
-2235 5871 -5868 0
5871 -5869 0
-2235 -5869 0
-2238 5872 0
5872 -5870 0
-2238 5873 -5870 0
5873 -5871 0
-2238 -5871 0
-2241 5874 0
5874 -5872 0
-2241 5875 -5872 0
5875 -5873 0
-2241 -5873 0
-2246 5876 0
5876 -5874 0
-2246 5877 -5874 0
5877 -5875 0
-2246 -5875 0
-2249 5878 0
5878 -5876 0
-2249 5879 -5876 0
5879 -5877 0
-2249 -5877 0
-2252 5880 0
5880 -5878 0
-2252 5881 -5878 0
5881 -5879 0
-2252 -5879 0
-2255 5882 0
5882 -5880 0
-2255 5883 -5880 0
5883 -5881 0
-2255 -5881 0
-2258 5884 0
5884 -5882 0
-2258 5885 -5882 0
5885 -5883 0
-2258 -5883 0
-2261 5886 0
5886 -5884 0
-2261 5887 -5884 0
5887 -5885 0
-2261 -5885 0
-2264 5888 0
5888 -5886 0
-2264 5889 -5886 0
5889 -5887 0
-2264 -5887 0
-2267 5890 0
5890 -5888 0
-2267 5891 -5888 0
5891 -5889 0
-2267 -5889 0
-2270 5892 0
5892 -5890 0
-2270 5893 -5890 0
5893 -5891 0
-2270 -5891 0
-2273 5894 0
5894 -5892 0
-2273 5895 -5892 0
5895 -5893 0
-2273 -5893 0
-2276 5896 0
5896 -5894 0
-2276 5897 -5894 0
5897 -5895 0
-2276 -5895 0
-2279 5898 0
5898 -5896 0
-2279 5899 -5896 0
5899 -5897 0
-2279 -5897 0
-2282 5900 0
5900 -5898 0
-2282 5901 -5898 0
5901 -5899 0
-2282 -5899 0
-2285 5902 0
5902 -5900 0
-2285 5903 -5900 0
5903 -5901 0
-2285 -5901 0
-2288 5904 0
5904 -5902 0
-2288 5905 -5902 0
5905 -5903 0
-2288 -5903 0
-2291 5906 0
5906 -5904 0
-2291 5907 -5904 0
5907 -5905 0
-2291 -5905 0
-2296 5908 0
5908 -5906 0
-2296 5909 -5906 0
5909 -5907 0
-2296 -5907 0
-2299 5910 0
5910 -5908 0
-2299 5911 -5908 0
5911 -5909 0
-2299 -5909 0
-2302 5912 0
5912 -5910 0
-2302 5913 -5910 0
5913 -5911 0
-2302 -5911 0
-2305 5914 0
5914 -5912 0
-2305 5915 -5912 0
5915 -5913 0
-2305 -5913 0
-2308 5916 0
5916 -5914 0
-2308 5917 -5914 0
5917 -5915 0
-2308 -5915 0
-2311 5918 0
5918 -5916 0
-2311 5919 -5916 0
5919 -5917 0
-2311 -5917 0
-2314 5920 0
5920 -5918 0
-2314 5921 -5918 0
5921 -5919 0
-2314 -5919 0
-2317 5922 0
5922 -5920 0
-2317 5923 -5920 0
5923 -5921 0
-2317 -5921 0
-2320 5924 0
5924 -5922 0
-2320 5925 -5922 0
5925 -5923 0
-2320 -5923 0
-2323 5926 0
5926 -5924 0
-2323 5927 -5924 0
5927 -5925 0
-2323 -5925 0
-2326 5928 0
5928 -5926 0
-2326 5929 -5926 0
5929 -5927 0
-2326 -5927 0
-2329 5930 0
5930 -5928 0
-2329 5931 -5928 0
5931 -5929 0
-2329 -5929 0
-2332 5932 0
5932 -5930 0
-2332 5933 -5930 0
5933 -5931 0
-2332 -5931 0
-2335 5934 0
5934 -5932 0
-2335 5935 -5932 0
5935 -5933 0
-2335 -5933 0
-2338 5936 0
5936 -5934 0
-2338 5937 -5934 0
5937 -5935 0
-2338 -5935 0
-2341 5938 0
5938 -5936 0
-2341 5939 -5936 0
5939 -5937 0
-2341 -5937 0
-2346 5940 0
5940 -5938 0
-2346 5941 -5938 0
5941 -5939 0
-2346 -5939 0
-2349 5942 0
5942 -5940 0
-2349 5943 -5940 0
5943 -5941 0
-2349 -5941 0
-2352 5944 0
5944 -5942 0
-2352 5945 -5942 0
5945 -5943 0
-2352 -5943 0
-2355 5946 0
5946 -5944 0
-2355 5947 -5944 0
5947 -5945 0
-2355 -5945 0
-2358 5948 0
5948 -5946 0
-2358 5949 -5946 0
5949 -5947 0
-2358 -5947 0
-2361 5950 0
5950 -5948 0
-2361 5951 -5948 0
5951 -5949 0
-2361 -5949 0
-2364 5952 0
5952 -5950 0
-2364 5953 -5950 0
5953 -5951 0
-2364 -5951 0
-2367 5954 0
5954 -5952 0
-2367 5955 -5952 0
5955 -5953 0
-2367 -5953 0
-2370 5956 0
5956 -5954 0
-2370 5957 -5954 0
5957 -5955 0
-2370 -5955 0
-2373 5958 0
5958 -5956 0
-2373 5959 -5956 0
5959 -5957 0
-2373 -5957 0
-2376 5960 0
5960 -5958 0
-2376 5961 -5958 0
5961 -5959 0
-2376 -5959 0
-2379 5962 0
5962 -5960 0
-2379 5963 -5960 0
5963 -5961 0
-2379 -5961 0
-2382 5964 0
5964 -5962 0
-2382 5965 -5962 0
5965 -5963 0
-2382 -5963 0
-2385 5966 0
5966 -5964 0
-2385 5967 -5964 0
5967 -5965 0
-2385 -5965 0
-2388 5968 0
5968 -5966 0
-2388 5969 -5966 0
5969 -5967 0
-2388 -5967 0
-2391 5970 0
5970 -5968 0
-2391 5971 -5968 0
5971 -5969 0
-2391 -5969 0
-2396 5972 0
5972 -5970 0
-2396 5973 -5970 0
5973 -5971 0
-2396 -5971 0
-2399 5974 0
5974 -5972 0
-2399 5975 -5972 0
5975 -5973 0
-2399 -5973 0
-2402 5976 0
5976 -5974 0
-2402 5977 -5974 0
5977 -5975 0
-2402 -5975 0
-2405 5978 0
5978 -5976 0
-2405 5979 -5976 0
5979 -5977 0
-2405 -5977 0
-2408 5980 0
5980 -5978 0
-2408 5981 -5978 0
5981 -5979 0
-2408 -5979 0
-2411 5982 0
5982 -5980 0
-2411 5983 -5980 0
5983 -5981 0
-2411 -5981 0
-2414 5984 0
5984 -5982 0
-2414 5985 -5982 0
5985 -5983 0
-2414 -5983 0
-2417 5986 0
5986 -5984 0
-2417 5987 -5984 0
5987 -5985 0
-2417 -5985 0
-2420 5988 0
5988 -5986 0
-2420 5989 -5986 0
5989 -5987 0
-2420 -5987 0
-2423 5990 0
5990 -5988 0
-2423 5991 -5988 0
5991 -5989 0
-2423 -5989 0
-2426 5992 0
5992 -5990 0
-2426 5993 -5990 0
5993 -5991 0
-2426 -5991 0
-2429 5994 0
5994 -5992 0
-2429 5995 -5992 0
5995 -5993 0
-2429 -5993 0
-2432 5996 0
5996 -5994 0
-2432 5997 -5994 0
5997 -5995 0
-2432 -5995 0
-2435 5998 0
5998 -5996 0
-2435 5999 -5996 0
5999 -5997 0
-2435 -5997 0
-2438 6000 0
6000 -5998 0
-2438 6001 -5998 0
6001 -5999 0
-2438 -5999 0
-2441 6002 0
6002 -6000 0
-2441 6003 -6000 0
6003 -6001 0
-2441 -6001 0
-2446 6004 0
6004 -6002 0
-2446 6005 -6002 0
6005 -6003 0
-2446 -6003 0
-2449 6006 0
6006 -6004 0
-2449 6007 -6004 0
6007 -6005 0
-2449 -6005 0
-2452 6008 0
6008 -6006 0
-2452 6009 -6006 0
6009 -6007 0
-2452 -6007 0
-2455 6010 0
6010 -6008 0
-2455 6011 -6008 0
6011 -6009 0
-2455 -6009 0
-2458 6012 0
6012 -6010 0
-2458 6013 -6010 0
6013 -6011 0
-2458 -6011 0
-2461 6014 0
6014 -6012 0
-2461 6015 -6012 0
6015 -6013 0
-2461 -6013 0
-2464 6016 0
6016 -6014 0
-2464 6017 -6014 0
6017 -6015 0
-2464 -6015 0
-2467 6018 0
6018 -6016 0
-2467 6019 -6016 0
6019 -6017 0
-2467 -6017 0
-2470 6020 0
6020 -6018 0
-2470 6021 -6018 0
6021 -6019 0
-2470 -6019 0
-2473 6022 0
6022 -6020 0
-2473 6023 -6020 0
6023 -6021 0
-2473 -6021 0
-2476 6024 0
6024 -6022 0
-2476 6025 -6022 0
6025 -6023 0
-2476 -6023 0
-2479 6026 0
6026 -6024 0
-2479 6027 -6024 0
6027 -6025 0
-2479 -6025 0
-2482 6028 0
6028 -6026 0
-2482 6029 -6026 0
6029 -6027 0
-2482 -6027 0
-2485 6030 0
6030 -6028 0
-2485 6031 -6028 0
6031 -6029 0
-2485 -6029 0
-2488 6032 0
6032 -6030 0
-2488 6033 -6030 0
6033 -6031 0
-2488 -6031 0
-2491 6034 0
6034 -6032 0
-2491 6035 -6032 0
6035 -6033 0
-2491 -6033 0
-2496 6036 0
6036 -6034 0
-2496 6037 -6034 0
6037 -6035 0
-2496 -6035 0
-2499 6038 0
6038 -6036 0
-2499 6039 -6036 0
6039 -6037 0
-2499 -6037 0
-2502 6040 0
6040 -6038 0
-2502 6041 -6038 0
6041 -6039 0
-2502 -6039 0
-2505 6042 0
6042 -6040 0
-2505 6043 -6040 0
6043 -6041 0
-2505 -6041 0
-2508 6044 0
6044 -6042 0
-2508 6045 -6042 0
6045 -6043 0
-2508 -6043 0
-2511 6046 0
6046 -6044 0
-2511 6047 -6044 0
6047 -6045 0
-2511 -6045 0
-2514 6048 0
6048 -6046 0
-2514 6049 -6046 0
6049 -6047 0
-2514 -6047 0
-2517 6050 0
6050 -6048 0
-2517 6051 -6048 0
6051 -6049 0
-2517 -6049 0
-2520 6052 0
6052 -6050 0
-2520 6053 -6050 0
6053 -6051 0
-2520 -6051 0
-2523 6054 0
6054 -6052 0
-2523 6055 -6052 0
6055 -6053 0
-2523 -6053 0
-2526 6056 0
6056 -6054 0
-2526 6057 -6054 0
6057 -6055 0
-2526 -6055 0
-2529 6058 0
6058 -6056 0
-2529 6059 -6056 0
6059 -6057 0
-2529 -6057 0
-2532 6060 0
6060 -6058 0
-2532 6061 -6058 0
6061 -6059 0
-2532 -6059 0
-2535 6062 0
6062 -6060 0
-2535 6063 -6060 0
6063 -6061 0
-2535 -6061 0
-2538 6064 0
6064 -6062 0
-2538 6065 -6062 0
6065 -6063 0
-2538 -6063 0
-2541 6066 0
6066 -6064 0
-2541 6067 -6064 0
6067 -6065 0
-2541 -6065 0
-2546 6068 0
6068 -6066 0
-2546 6069 -6066 0
6069 -6067 0
-2546 -6067 0
-2549 6070 0
6070 -6068 0
-2549 6071 -6068 0
6071 -6069 0
-2549 -6069 0
-2552 6072 0
6072 -6070 0
-2552 6073 -6070 0
6073 -6071 0
-2552 -6071 0
-2555 6074 0
6074 -6072 0
-2555 6075 -6072 0
6075 -6073 0
-2555 -6073 0
-2558 6076 0
6076 -6074 0
-2558 6077 -6074 0
6077 -6075 0
-2558 -6075 0
-2561 6078 0
6078 -6076 0
-2561 6079 -6076 0
6079 -6077 0
-2561 -6077 0
-2564 6080 0
6080 -6078 0
-2564 6081 -6078 0
6081 -6079 0
-2564 -6079 0
-2567 6082 0
6082 -6080 0
-2567 6083 -6080 0
6083 -6081 0
-2567 -6081 0
-2570 6084 0
6084 -6082 0
-2570 6085 -6082 0
6085 -6083 0
-2570 -6083 0
-2573 6086 0
6086 -6084 0
-2573 6087 -6084 0
6087 -6085 0
-2573 -6085 0
-2576 6088 0
6088 -6086 0
-2576 6089 -6086 0
6089 -6087 0
-2576 -6087 0
-2579 6090 0
6090 -6088 0
-2579 6091 -6088 0
6091 -6089 0
-2579 -6089 0
-2582 6092 0
6092 -6090 0
-2582 6093 -6090 0
6093 -6091 0
-2582 -6091 0
-2585 6094 0
6094 -6092 0
-2585 6095 -6092 0
6095 -6093 0
-2585 -6093 0
-2588 6096 0
6096 -6094 0
-2588 6097 -6094 0
6097 -6095 0
-2588 -6095 0
-2591 6098 0
6098 -6096 0
-2591 6099 -6096 0
6099 -6097 0
-2591 -6097 0
-2596 6100 0
6100 -6098 0
-2596 6101 -6098 0
6101 -6099 0
-2596 -6099 0
-2599 6102 0
6102 -6100 0
-2599 6103 -6100 0
6103 -6101 0
-2599 -6101 0
-2602 6104 0
6104 -6102 0
-2602 6105 -6102 0
6105 -6103 0
-2602 -6103 0
-2605 6106 0
6106 -6104 0
-2605 6107 -6104 0
6107 -6105 0
-2605 -6105 0
-2608 6108 0
6108 -6106 0
-2608 6109 -6106 0
6109 -6107 0
-2608 -6107 0
-2611 6110 0
6110 -6108 0
-2611 6111 -6108 0
6111 -6109 0
-2611 -6109 0
-2614 6112 0
6112 -6110 0
-2614 6113 -6110 0
6113 -6111 0
-2614 -6111 0
-2617 6114 0
6114 -6112 0
-2617 6115 -6112 0
6115 -6113 0
-2617 -6113 0
-2620 6116 0
6116 -6114 0
-2620 6117 -6114 0
6117 -6115 0
-2620 -6115 0
-2623 6118 0
6118 -6116 0
-2623 6119 -6116 0
6119 -6117 0
-2623 -6117 0
-2626 6120 0
6120 -6118 0
-2626 6121 -6118 0
6121 -6119 0
-2626 -6119 0
-2629 6122 0
6122 -6120 0
-2629 6123 -6120 0
6123 -6121 0
-2629 -6121 0
-2632 6124 0
6124 -6122 0
-2632 6125 -6122 0
6125 -6123 0
-2632 -6123 0
-2635 6126 0
6126 -6124 0
-2635 6127 -6124 0
6127 -6125 0
-2635 -6125 0
-2638 6128 0
6128 -6126 0
-2638 6129 -6126 0
6129 -6127 0
-2638 -6127 0
-2641 6130 0
6130 -6128 0
-2641 6131 -6128 0
6131 -6129 0
-2641 -6129 0
-2646 6132 0
6132 -6130 0
-2646 6133 -6130 0
6133 -6131 0
-2646 -6131 0
-2649 6134 0
6134 -6132 0
-2649 6135 -6132 0
6135 -6133 0
-2649 -6133 0
-2652 6136 0
6136 -6134 0
-2652 6137 -6134 0
6137 -6135 0
-2652 -6135 0
-2655 6138 0
6138 -6136 0
-2655 6139 -6136 0
6139 -6137 0
-2655 -6137 0
-2658 6140 0
6140 -6138 0
-2658 6141 -6138 0
6141 -6139 0
-2658 -6139 0
-2661 6142 0
6142 -6140 0
-2661 6143 -6140 0
6143 -6141 0
-2661 -6141 0
-2664 6144 0
6144 -6142 0
-2664 6145 -6142 0
6145 -6143 0
-2664 -6143 0
-2667 6146 0
6146 -6144 0
-2667 6147 -6144 0
6147 -6145 0
-2667 -6145 0
-2670 6148 0
6148 -6146 0
-2670 6149 -6146 0
6149 -6147 0
-2670 -6147 0
-2673 6150 0
6150 -6148 0
-2673 6151 -6148 0
6151 -6149 0
-2673 -6149 0
-2676 6152 0
6152 -6150 0
-2676 6153 -6150 0
6153 -6151 0
-2676 -6151 0
-2679 6154 0
6154 -6152 0
-2679 6155 -6152 0
6155 -6153 0
-2679 -6153 0
-2682 6156 0
6156 -6154 0
-2682 6157 -6154 0
6157 -6155 0
-2682 -6155 0
-2685 6158 0
6158 -6156 0
-2685 6159 -6156 0
6159 -6157 0
-2685 -6157 0
-2688 6160 0
6160 -6158 0
-2688 6161 -6158 0
6161 -6159 0
-2688 -6159 0
-2691 6162 0
6162 -6160 0
-2691 6163 -6160 0
6163 -6161 0
-2691 -6161 0
-2696 6164 0
6164 -6162 0
-2696 6165 -6162 0
6165 -6163 0
-2696 -6163 0
-2699 6166 0
6166 -6164 0
-2699 6167 -6164 0
6167 -6165 0
-2699 -6165 0
-2702 6168 0
6168 -6166 0
-2702 6169 -6166 0
6169 -6167 0
-2702 -6167 0
-2705 6170 0
6170 -6168 0
-2705 6171 -6168 0
6171 -6169 0
-2705 -6169 0
-2708 6172 0
6172 -6170 0
-2708 6173 -6170 0
6173 -6171 0
-2708 -6171 0
-2711 6174 0
6174 -6172 0
-2711 6175 -6172 0
6175 -6173 0
-2711 -6173 0
-2714 6176 0
6176 -6174 0
-2714 6177 -6174 0
6177 -6175 0
-2714 -6175 0
-2717 6178 0
6178 -6176 0
-2717 6179 -6176 0
6179 -6177 0
-2717 -6177 0
-2720 6180 0
6180 -6178 0
-2720 6181 -6178 0
6181 -6179 0
-2720 -6179 0
-2723 6182 0
6182 -6180 0
-2723 6183 -6180 0
6183 -6181 0
-2723 -6181 0
-2726 6184 0
6184 -6182 0
-2726 6185 -6182 0
6185 -6183 0
-2726 -6183 0
-2729 6186 0
6186 -6184 0
-2729 6187 -6184 0
6187 -6185 0
-2729 -6185 0
-2732 6188 0
6188 -6186 0
-2732 6189 -6186 0
6189 -6187 0
-2732 -6187 0
-2735 6190 0
6190 -6188 0
-2735 6191 -6188 0
6191 -6189 0
-2735 -6189 0
-2738 6192 0
6192 -6190 0
-2738 6193 -6190 0
6193 -6191 0
-2738 -6191 0
-2741 6194 0
6194 -6192 0
-2741 6195 -6192 0
6195 -6193 0
-2741 -6193 0
-2746 6196 0
6196 -6194 0
-2746 6197 -6194 0
6197 -6195 0
-2746 -6195 0
-2749 6198 0
6198 -6196 0
-2749 6199 -6196 0
6199 -6197 0
-2749 -6197 0
-2752 6200 0
6200 -6198 0
-2752 6201 -6198 0
6201 -6199 0
-2752 -6199 0
-2755 6202 0
6202 -6200 0
-2755 6203 -6200 0
6203 -6201 0
-2755 -6201 0
-2758 6204 0
6204 -6202 0
-2758 6205 -6202 0
6205 -6203 0
-2758 -6203 0
-2761 6206 0
6206 -6204 0
-2761 6207 -6204 0
6207 -6205 0
-2761 -6205 0
-2764 6208 0
6208 -6206 0
-2764 6209 -6206 0
6209 -6207 0
-2764 -6207 0
-2767 6210 0
6210 -6208 0
-2767 6211 -6208 0
6211 -6209 0
-2767 -6209 0
-2770 6212 0
6212 -6210 0
-2770 6213 -6210 0
6213 -6211 0
-2770 -6211 0
-2773 6214 0
6214 -6212 0
-2773 6215 -6212 0
6215 -6213 0
-2773 -6213 0
-2776 6216 0
6216 -6214 0
-2776 6217 -6214 0
6217 -6215 0
-2776 -6215 0
-2779 6218 0
6218 -6216 0
-2779 6219 -6216 0
6219 -6217 0
-2779 -6217 0
-2782 6220 0
6220 -6218 0
-2782 6221 -6218 0
6221 -6219 0
-2782 -6219 0
-2785 6222 0
6222 -6220 0
-2785 6223 -6220 0
6223 -6221 0
-2785 -6221 0
-2788 6224 0
6224 -6222 0
-2788 6225 -6222 0
6225 -6223 0
-2788 -6223 0
-2791 6226 0
6226 -6224 0
-2791 6227 -6224 0
6227 -6225 0
-2791 -6225 0
-2796 6228 0
6228 -6226 0
-2796 6229 -6226 0
6229 -6227 0
-2796 -6227 0
-2799 6230 0
6230 -6228 0
-2799 6231 -6228 0
6231 -6229 0
-2799 -6229 0
-2802 6232 0
6232 -6230 0
-2802 6233 -6230 0
6233 -6231 0
-2802 -6231 0
-2805 6234 0
6234 -6232 0
-2805 6235 -6232 0
6235 -6233 0
-2805 -6233 0
-2808 6236 0
6236 -6234 0
-2808 6237 -6234 0
6237 -6235 0
-2808 -6235 0
-2811 6238 0
6238 -6236 0
-2811 6239 -6236 0
6239 -6237 0
-2811 -6237 0
-2814 6240 0
6240 -6238 0
-2814 6241 -6238 0
6241 -6239 0
-2814 -6239 0
-2817 6242 0
6242 -6240 0
-2817 6243 -6240 0
6243 -6241 0
-2817 -6241 0
-2820 6244 0
6244 -6242 0
-2820 6245 -6242 0
6245 -6243 0
-2820 -6243 0
-2823 6246 0
6246 -6244 0
-2823 6247 -6244 0
6247 -6245 0
-2823 -6245 0
-2826 6248 0
6248 -6246 0
-2826 6249 -6246 0
6249 -6247 0
-2826 -6247 0
-2829 6250 0
6250 -6248 0
-2829 6251 -6248 0
6251 -6249 0
-2829 -6249 0
-2832 6252 0
6252 -6250 0
-2832 6253 -6250 0
6253 -6251 0
-2832 -6251 0
-2835 6254 0
6254 -6252 0
-2835 6255 -6252 0
6255 -6253 0
-2835 -6253 0
-2838 6256 0
6256 -6254 0
-2838 6257 -6254 0
6257 -6255 0
-2838 -6255 0
-2841 6258 0
6258 -6256 0
-2841 6259 -6256 0
6259 -6257 0
-2841 -6257 0
-2846 6260 0
6260 -6258 0
-2846 6261 -6258 0
6261 -6259 0
-2846 -6259 0
-2849 6262 0
6262 -6260 0
-2849 6263 -6260 0
6263 -6261 0
-2849 -6261 0
-2852 6264 0
6264 -6262 0
-2852 6265 -6262 0
6265 -6263 0
-2852 -6263 0
-2855 6266 0
6266 -6264 0
-2855 6267 -6264 0
6267 -6265 0
-2855 -6265 0
-2858 6268 0
6268 -6266 0
-2858 6269 -6266 0
6269 -6267 0
-2858 -6267 0
-2861 6270 0
6270 -6268 0
-2861 6271 -6268 0
6271 -6269 0
-2861 -6269 0
-2864 6272 0
6272 -6270 0
-2864 6273 -6270 0
6273 -6271 0
-2864 -6271 0
-2867 6274 0
6274 -6272 0
-2867 6275 -6272 0
6275 -6273 0
-2867 -6273 0
-2870 6276 0
6276 -6274 0
-2870 6277 -6274 0
6277 -6275 0
-2870 -6275 0
-2873 6278 0
6278 -6276 0
-2873 6279 -6276 0
6279 -6277 0
-2873 -6277 0
-2876 6280 0
6280 -6278 0
-2876 6281 -6278 0
6281 -6279 0
-2876 -6279 0
-2879 6282 0
6282 -6280 0
-2879 6283 -6280 0
6283 -6281 0
-2879 -6281 0
-2882 6284 0
6284 -6282 0
-2882 6285 -6282 0
6285 -6283 0
-2882 -6283 0
-2885 6286 0
6286 -6284 0
-2885 6287 -6284 0
6287 -6285 0
-2885 -6285 0
-2888 6288 0
6288 -6286 0
-2888 6289 -6286 0
6289 -6287 0
-2888 -6287 0
-2891 6290 0
6290 -6288 0
-2891 6291 -6288 0
6291 -6289 0
-2891 -6289 0
-2896 6292 0
6292 -6290 0
-2896 6293 -6290 0
6293 -6291 0
-2896 -6291 0
-2899 6294 0
6294 -6292 0
-2899 6295 -6292 0
6295 -6293 0
-2899 -6293 0
-2902 6296 0
6296 -6294 0
-2902 6297 -6294 0
6297 -6295 0
-2902 -6295 0
-2905 6298 0
6298 -6296 0
-2905 6299 -6296 0
6299 -6297 0
-2905 -6297 0
-2908 6300 0
6300 -6298 0
-2908 6301 -6298 0
6301 -6299 0
-2908 -6299 0
-2911 6302 0
6302 -6300 0
-2911 6303 -6300 0
6303 -6301 0
-2911 -6301 0
-2914 6304 0
6304 -6302 0
-2914 6305 -6302 0
6305 -6303 0
-2914 -6303 0
-2917 6306 0
6306 -6304 0
-2917 6307 -6304 0
6307 -6305 0
-2917 -6305 0
-2920 6308 0
6308 -6306 0
-2920 6309 -6306 0
6309 -6307 0
-2920 -6307 0
-2923 6310 0
6310 -6308 0
-2923 6311 -6308 0
6311 -6309 0
-2923 -6309 0
-2926 6312 0
6312 -6310 0
-2926 6313 -6310 0
6313 -6311 0
-2926 -6311 0
-2929 6314 0
6314 -6312 0
-2929 6315 -6312 0
6315 -6313 0
-2929 -6313 0
-2932 6316 0
6316 -6314 0
-2932 6317 -6314 0
6317 -6315 0
-2932 -6315 0
-2935 6318 0
6318 -6316 0
-2935 6319 -6316 0
6319 -6317 0
-2935 -6317 0
-2938 6320 0
6320 -6318 0
-2938 6321 -6318 0
6321 -6319 0
-2938 -6319 0
-2941 6322 0
6322 -6320 0
-2941 6323 -6320 0
6323 -6321 0
-2941 -6321 0
-2946 6324 0
6324 -6322 0
-2946 6325 -6322 0
6325 -6323 0
-2946 -6323 0
-2949 6326 0
6326 -6324 0
-2949 6327 -6324 0
6327 -6325 0
-2949 -6325 0
-2952 6328 0
6328 -6326 0
-2952 6329 -6326 0
6329 -6327 0
-2952 -6327 0
-2955 6330 0
6330 -6328 0
-2955 6331 -6328 0
6331 -6329 0
-2955 -6329 0
-2958 6332 0
6332 -6330 0
-2958 6333 -6330 0
6333 -6331 0
-2958 -6331 0
-2961 6334 0
6334 -6332 0
-2961 6335 -6332 0
6335 -6333 0
-2961 -6333 0
-2964 6336 0
6336 -6334 0
-2964 6337 -6334 0
6337 -6335 0
-2964 -6335 0
-2967 6338 0
6338 -6336 0
-2967 6339 -6336 0
6339 -6337 0
-2967 -6337 0
-2970 6340 0
6340 -6338 0
-2970 6341 -6338 0
6341 -6339 0
-2970 -6339 0
-2973 6342 0
6342 -6340 0
-2973 6343 -6340 0
6343 -6341 0
-2973 -6341 0
-2976 6344 0
6344 -6342 0
-2976 6345 -6342 0
6345 -6343 0
-2976 -6343 0
-2979 6346 0
6346 -6344 0
-2979 6347 -6344 0
6347 -6345 0
-2979 -6345 0
-2982 6348 0
6348 -6346 0
-2982 6349 -6346 0
6349 -6347 0
-2982 -6347 0
-2985 6350 0
6350 -6348 0
-2985 6351 -6348 0
6351 -6349 0
-2985 -6349 0
-2988 6352 0
6352 -6350 0
-2988 6353 -6350 0
6353 -6351 0
-2988 -6351 0
-2991 6354 0
6354 -6352 0
-2991 6355 -6352 0
6355 -6353 0
-2991 -6353 0
-2996 6356 0
6356 -6354 0
-2996 6357 -6354 0
6357 -6355 0
-2996 -6355 0
-2999 6358 0
6358 -6356 0
-2999 6359 -6356 0
6359 -6357 0
-2999 -6357 0
-3002 6360 0
6360 -6358 0
-3002 6361 -6358 0
6361 -6359 0
-3002 -6359 0
-3005 6362 0
6362 -6360 0
-3005 6363 -6360 0
6363 -6361 0
-3005 -6361 0
-3008 6364 0
6364 -6362 0
-3008 6365 -6362 0
6365 -6363 0
-3008 -6363 0
-3011 6366 0
6366 -6364 0
-3011 6367 -6364 0
6367 -6365 0
-3011 -6365 0
-3014 6368 0
6368 -6366 0
-3014 6369 -6366 0
6369 -6367 0
-3014 -6367 0
-3017 6370 0
6370 -6368 0
-3017 6371 -6368 0
6371 -6369 0
-3017 -6369 0
-3020 6372 0
6372 -6370 0
-3020 6373 -6370 0
6373 -6371 0
-3020 -6371 0
-3023 6374 0
6374 -6372 0
-3023 6375 -6372 0
6375 -6373 0
-3023 -6373 0
-3026 6376 0
6376 -6374 0
-3026 6377 -6374 0
6377 -6375 0
-3026 -6375 0
-3029 6378 0
6378 -6376 0
-3029 6379 -6376 0
6379 -6377 0
-3029 -6377 0
-3032 6380 0
6380 -6378 0
-3032 6381 -6378 0
6381 -6379 0
-3032 -6379 0
-3035 6382 0
6382 -6380 0
-3035 6383 -6380 0
6383 -6381 0
-3035 -6381 0
-3038 6384 0
6384 -6382 0
-3038 6385 -6382 0
6385 -6383 0
-3038 -6383 0
-3041 6386 0
6386 -6384 0
-3041 6387 -6384 0
6387 -6385 0
-3041 -6385 0
-3046 6388 0
6388 -6386 0
-3046 6389 -6386 0
6389 -6387 0
-3046 -6387 0
-3049 6390 0
6390 -6388 0
-3049 6391 -6388 0
6391 -6389 0
-3049 -6389 0
-3052 6392 0
6392 -6390 0
-3052 6393 -6390 0
6393 -6391 0
-3052 -6391 0
-3055 6394 0
6394 -6392 0
-3055 6395 -6392 0
6395 -6393 0
-3055 -6393 0
-3058 6396 0
6396 -6394 0
-3058 6397 -6394 0
6397 -6395 0
-3058 -6395 0
-3061 6398 0
6398 -6396 0
-3061 6399 -6396 0
6399 -6397 0
-3061 -6397 0
-3064 6400 0
6400 -6398 0
-3064 6401 -6398 0
6401 -6399 0
-3064 -6399 0
-3067 6402 0
6402 -6400 0
-3067 6403 -6400 0
6403 -6401 0
-3067 -6401 0
-3070 6404 0
6404 -6402 0
-3070 6405 -6402 0
6405 -6403 0
-3070 -6403 0
-3073 6406 0
6406 -6404 0
-3073 6407 -6404 0
6407 -6405 0
-3073 -6405 0
-3076 6408 0
6408 -6406 0
-3076 6409 -6406 0
6409 -6407 0
-3076 -6407 0
-3079 6410 0
6410 -6408 0
-3079 6411 -6408 0
6411 -6409 0
-3079 -6409 0
-3082 6412 0
6412 -6410 0
-3082 6413 -6410 0
6413 -6411 0
-3082 -6411 0
-3085 6414 0
6414 -6412 0
-3085 6415 -6412 0
6415 -6413 0
-3085 -6413 0
-3088 6416 0
6416 -6414 0
-3088 6417 -6414 0
6417 -6415 0
-3088 -6415 0
-3091 6418 0
6418 -6416 0
-3091 6419 -6416 0
6419 -6417 0
-3091 -6417 0
-3096 6420 0
6420 -6418 0
-3096 6421 -6418 0
6421 -6419 0
-3096 -6419 0
-3099 6422 0
6422 -6420 0
-3099 6423 -6420 0
6423 -6421 0
-3099 -6421 0
-3102 6424 0
6424 -6422 0
-3102 6425 -6422 0
6425 -6423 0
-3102 -6423 0
-3105 6426 0
6426 -6424 0
-3105 6427 -6424 0
6427 -6425 0
-3105 -6425 0
-3108 6428 0
6428 -6426 0
-3108 6429 -6426 0
6429 -6427 0
-3108 -6427 0
-3111 6430 0
6430 -6428 0
-3111 6431 -6428 0
6431 -6429 0
-3111 -6429 0
-3114 6432 0
6432 -6430 0
-3114 6433 -6430 0
6433 -6431 0
-3114 -6431 0
-3117 6434 0
6434 -6432 0
-3117 6435 -6432 0
6435 -6433 0
-3117 -6433 0
-3120 6436 0
6436 -6434 0
-3120 6437 -6434 0
6437 -6435 0
-3120 -6435 0
-3123 6438 0
6438 -6436 0
-3123 6439 -6436 0
6439 -6437 0
-3123 -6437 0
-3126 6440 0
6440 -6438 0
-3126 6441 -6438 0
6441 -6439 0
-3126 -6439 0
-3129 6442 0
6442 -6440 0
-3129 6443 -6440 0
6443 -6441 0
-3129 -6441 0
-3132 6444 0
6444 -6442 0
-3132 6445 -6442 0
6445 -6443 0
-3132 -6443 0
-3135 6446 0
6446 -6444 0
-3135 6447 -6444 0
6447 -6445 0
-3135 -6445 0
-3138 6448 0
6448 -6446 0
-3138 6449 -6446 0
6449 -6447 0
-3138 -6447 0
-3141 6450 0
6450 -6448 0
-3141 6451 -6448 0
6451 -6449 0
-3141 -6449 0
-3146 6452 0
6452 -6450 0
-3146 6453 -6450 0
6453 -6451 0
-3146 -6451 0
-3149 6454 0
6454 -6452 0
-3149 6455 -6452 0
6455 -6453 0
-3149 -6453 0
-3152 6456 0
6456 -6454 0
-3152 6457 -6454 0
6457 -6455 0
-3152 -6455 0
-3155 6458 0
6458 -6456 0
-3155 6459 -6456 0
6459 -6457 0
-3155 -6457 0
-3158 6460 0
6460 -6458 0
-3158 6461 -6458 0
6461 -6459 0
-3158 -6459 0
-3161 6462 0
6462 -6460 0
-3161 6463 -6460 0
6463 -6461 0
-3161 -6461 0
-3164 6464 0
6464 -6462 0
-3164 6465 -6462 0
6465 -6463 0
-3164 -6463 0
-3167 6466 0
6466 -6464 0
-3167 6467 -6464 0
6467 -6465 0
-3167 -6465 0
-3170 6468 0
6468 -6466 0
-3170 6469 -6466 0
6469 -6467 0
-3170 -6467 0
-3173 6470 0
6470 -6468 0
-3173 6471 -6468 0
6471 -6469 0
-3173 -6469 0
-3176 6472 0
6472 -6470 0
-3176 6473 -6470 0
6473 -6471 0
-3176 -6471 0
-3179 6474 0
6474 -6472 0
-3179 6475 -6472 0
6475 -6473 0
-3179 -6473 0
-3182 6476 0
6476 -6474 0
-3182 6477 -6474 0
6477 -6475 0
-3182 -6475 0
-3185 6478 0
6478 -6476 0
-3185 6479 -6476 0
6479 -6477 0
-3185 -6477 0
-3188 6480 0
6480 -6478 0
-3188 6481 -6478 0
6481 -6479 0
-3188 -6479 0
-3191 6482 0
6482 -6480 0
-3191 6483 -6480 0
6483 -6481 0
-3191 -6481 0
-3196 6484 0
6484 -6482 0
-3196 6485 -6482 0
6485 -6483 0
-3196 -6483 0
-3199 6486 0
6486 -6484 0
-3199 6487 -6484 0
6487 -6485 0
-3199 -6485 0
-3202 6488 0
6488 -6486 0
-3202 6489 -6486 0
6489 -6487 0
-3202 -6487 0
-3205 6490 0
6490 -6488 0
-3205 6491 -6488 0
6491 -6489 0
-3205 -6489 0
-3208 6492 0
6492 -6490 0
-3208 6493 -6490 0
6493 -6491 0
-3208 -6491 0
-3211 6494 0
6494 -6492 0
-3211 6495 -6492 0
6495 -6493 0
-3211 -6493 0
-3214 6496 0
6496 -6494 0
-3214 6497 -6494 0
6497 -6495 0
-3214 -6495 0
-3217 6498 0
6498 -6496 0
-3217 6499 -6496 0
6499 -6497 0
-3217 -6497 0
-3220 6500 0
6500 -6498 0
-3220 6501 -6498 0
6501 -6499 0
-3220 -6499 0
-3223 6502 0
6502 -6500 0
-3223 6503 -6500 0
6503 -6501 0
-3223 -6501 0
-3226 6504 0
6504 -6502 0
-3226 6505 -6502 0
6505 -6503 0
-3226 -6503 0
-3229 6506 0
6506 -6504 0
-3229 6507 -6504 0
6507 -6505 0
-3229 -6505 0
-3232 6508 0
6508 -6506 0
-3232 6509 -6506 0
6509 -6507 0
-3232 -6507 0
-3235 6510 0
6510 -6508 0
-3235 6511 -6508 0
6511 -6509 0
-3235 -6509 0
-3238 6512 0
6512 -6510 0
-3238 6513 -6510 0
6513 -6511 0
-3238 -6511 0
-3241 6514 0
6514 -6512 0
-3241 6515 -6512 0
6515 -6513 0
-3241 -6513 0
-3244 6516 0
6516 -6514 0
-3244 6517 -6514 0
6517 -6515 0
-3244 -6515 0
-3247 6518 0
6518 -6516 0
-3247 6519 -6516 0
6519 -6517 0
-3247 -6517 0
-3250 6520 0
6520 -6518 0
-3250 6521 -6518 0
6521 -6519 0
-3250 -6519 0
-3253 6522 0
6522 -6520 0
-3253 6523 -6520 0
6523 -6521 0
-3253 -6521 0
-3256 6524 0
6524 -6522 0
-3256 6525 -6522 0
6525 -6523 0
-3256 -6523 0
-3259 6526 0
6526 -6524 0
-3259 6527 -6524 0
6527 -6525 0
-3259 -6525 0
-3262 6528 0
6528 -6526 0
-3262 6529 -6526 0
6529 -6527 0
-3262 -6527 0
