p cnf 10465 26925
c [[5,1,3]] WMC instance (compact fault encoding)
c p show 1 2 3 4 5 6 7 8 9 10 11 12 13 14 15 16 17 18 19 20 21 22 23 24 25 26 27 28 29 30 31 32 33 34 35 36 37 38 39 40 41 42 43 44 45 46 47 48 49 50 51 52 53 54 55 56 57 58 59 60 61 62 63 64 65 66 67 68 69 70 71 72 73 74 75 76 77 78 79 80 81 82 83 84 85 86 87 88 89 90 91 92 93 94 95 96 97 98 99 100 101 102 103 104 105 106 107 108 109 110 111 112 113 114 115 116 117 118 119 120 121 122 123 124 125 126 127 128 129 130 131 132 133 134 135 136 137 138 139 140 141 142 143 144 145 146 147 148 149 150 151 152 153 154 155 156 157 158 159 160 161 162 163 164 165 166 167 168 169 170 171 172 173 174 175 176 177 178 179 180 181 182 183 184 185 186 187 188 189 190 191 192 193 194 195 196 197 198 199 200 201 202 203 204 205 206 207 208 209 210 211 212 213 214 215 216 217 218 219 220 221 222 223 224 225 226 227 228 229 230 231 232 233 234 235 236 237 238 239 240 241 242 243 244 245 246 247 248 249 250 251 252 253 254 255 256 257 258 259 260 261 262 263 264 265 266 267 268 269 270 271 272 273 274 275 276 277 278 279 280 281 282 283 284 285 286 287 288 289 290 291 292 293 294 295 296 297 298 299 300 301 302 303 304 305 306 307 308 309 310 311 312 313 314 315 316 317 318 319 320 321 322 323 324 325 326 327 328 329 330 331 332 333 334 335 336 337 338 339 340 341 342 343 344 345 346 347 348 349 350 351 352 353 354 355 356 357 358 359 360 361 362 363 364 365 366 367 368 369 370 371 372 373 374 375 376 377 378 379 380 381 382 383 384 385 386 387 388 389 390 391 392 393 394 395 396 397 398 399 400 401 402 403 404 405 406 407 408 409 410 411 412 413 414 415 416 417 418 419 420 421 422 423 424 425 426 427 428 429 430 431 432 433 434 435 436 437 438 439 440 441 442 443 444 445 446 447 448 449 450 451 452 453 454 455 456 457 458 459 460 461 462 463 464 465 466 467 468 469 470 471 472 473 474 475 476 477 478 479 480 481 482 483 484 485 486 487 488 489 490 491 492 493 494 495 496 497 498 499 500 501 502 503 504 505 506 507 508 509 510 511 512 513 514 515 516 517 518 519 520 521 522 523 524 525 526 527 528 529 530 531 532 533 534 535 536 537 538 539 540 541 542 543 544 545 546 547 548 549 550 551 552 553 554 555 556 557 558 559 560 561 562 563 564 565 566 567 568 569 570 571 572 573 574 575 576 577 578 579 580 581 582 583 584 585 586 587 588 589 590 591 592 593 594 595 596 597 598 599 600 601 602 603 604 605 606 607 608 609 610 611 612 613 614 615 616 617 618 619 620 621 622 623 624 625 626 627 628 629 630 631 632 633 634 635 636 637 638 639 640 641 642 643 644 645 646 647 648 649 650 651 652 653 654 655 656 657 658 659 660 661 662 663 664 665 666 667 668 669 670 671 672 673 674 675 676 677 678 679 680 681 682 683 684 685 686 687 688 689 690 691 692 693 694 695 696 697 698 699 700 701 702 703 704 705 706 707 708 709 710 711 712 713 714 715 716 717 718 719 720 721 722 723 724 725 726 727 728 729 730 731 732 733 734 735 736 737 738 739 740 741 742 743 744 745 746 747 748 749 750 751 752 753 754 755 756 757 758 759 760 761 762 763 764 765 766 767 768 769 770 771 772 773 774 775 776 777 778 779 780 781 782 783 784 785 786 787 788 789 790 791 792 793 794 795 796 797 798 799 800 801 802 803 804 805 806 807 808 809 810 811 812 813 814 815 816 817 818 819 820 821 822 823 824 825 826 827 828 829 830 831 832 833 834 835 836 837 838 839 840 841 842 843 844 845 846 847 848 849 850 851 852 853 854 855 856 857 858 859 860 861 862 863 864 865 866 867 868 869 870 871 872 873 874 875 876 877 878 879 880 881 882 883 884 885 886 887 888 889 890 891 892 893 894 895 896 897 898 899 900 901 902 903 904 905 906 907 908 909 910 911 912 913 914 915 916 917 918 919 920 921 922 923 924 925 926 927 928 929 930 931 932 933 934 935 936 937 938 939 940 941 942 943 944 945 946 947 948 949 950 951 952 953 954 955 956 957 958 959 960 961 962 963 964 965 966 967 968 969 970 971 972 973 974 975 976 977 978 979 980 981 982 983 984 985 986 987 988 989 990 991 992 993 994 995 996 997 998 999 1000 1001 1002 1003 1004 1005 1006 1007 1008 1009 1010 1011 1012 1013 1014 1015 1016 1017 1018 1019 1020 1021 1022 1023 1024 1025 1026 1027 1028 1029 1030 1031 1032 1033 1034 1035 1036 1037 1038 1039 1040 1041 1042 1043 1044 1045 1046 1047 1048 1049 1050 1051 1052 1053 1054 1055 1056 1057 1058 1059 1060 1061 1062 1063 1064 1065 1066 1067 1068 1069 1070 1071 1072 1073 1074 1075 1076 1077 1078 1079 1080 1081 1082 1083 1084 1085 1086 1087 1088 1089 1090 1091 1092 1093 1094 1095 1096 1097 1098 1099 1100 1101 1102 1103 1104 1105 1106 1107 1108 1109 1110 1111 1112 1113 1114 1115 1116 1117 1118 1119 1120 1121 1122 1123 1124 1125 1126 1127 1128 1129 1130 1131 1132 1133 1134 1135 1136 1137 1138 1139 1140 1141 1142 1143 1144 1145 1146 1147 1148 1149 1150 1151 1152 1153 1154 1155 1156 1157 1158 1159 1160 1161 1162 1163 1164 1165 1166 1167 1168 1169 1170 1171 1172 1173 1174 1175 1176 1177 1178 1179 1180 1181 1182 1183 1184 1185 1186 1187 1188 1189 1190 1191 1192 1193 1194 1195 1196 1197 1198 1199 1200 1201 1202 1203 1204 1205 1206 1207 1208 1209 1210 1211 1212 1213 1214 1215 1216 1217 1218 1219 1220 1221 1222 1223 1224 1225 1226 1227 1228 1229 1230 1231 1232 1233 1234 1235 1236 1237 1238 1239 1240 1241 1242 1243 1244 1245 1246 1247 1248 1249 1250 1251 1252 1253 1254 1255 1256 1257 1258 1259 1260 1261 1262 1263 1264 1265 1266 1267 1268 1269 1270 1271 1272 1273 1274 1275 1276 1277 1278 1279 1280 1281 1282 1283 1284 1285 1286 1287 1288 1289 1290 1291 1292 1293 1294 1295 1296 1297 1298 1299 1300 1301 1302 1303 1304 1305 1306 1307 1308 1309 1310 1311 1312 1313 1314 1315 1316 1317 1318 1319 1320 1321 1322 1323 1324 1325 1326 1327 1328 1329 1330 1331 1332 1333 1334 1335 1336 1337 1338 1339 1340 1341 1342 1343 1344 1345 1346 1347 1348 1349 1350 1351 1352 1353 1354 1355 1356 1357 1358 1359 1360 1361 1362 1363 1364 1365 1366 1367 1368 1369 1370 1371 1372 1373 1374 1375 1376 1377 1378 1379 1380 1381 1382 1383 1384 1385 1386 1387 1388 1389 1390 1391 1392 1393 1394 1395 1396 1397 1398 1399 1400 1401 1402 1403 1404 1405 1406 1407 1408 1409 1410 1411 1412 1413 1414 1415 1416 1417 1418 1419 1420 1421 1422 1423 1424 1425 1426 1427 1428 1429 1430 1431 1432 1433 1434 1435 1436 1437 1438 1439 1440 1441 1442 1443 1444 1445 1446 1447 1448 1449 1450 1451 1452 1453 1454 1455 1456 1457 1458 1459 1460 1461 1462 1463 1464 1465 1466 1467 1468 1469 1470 1471 1472 1473 1474 1475 1476 1477 1478 1479 1480 1481 1482 1483 1484 1485 1486 1487 1488 1489 1490 1491 1492 1493 1494 1495 1496 1497 1498 1499 1500 1501 1502 1503 1504 1505 1506 1507 1508 1509 1510 1511 1512 1513 1514 1515 1516 1517 1518 1519 1520 1521 1522 1523 1524 1525 1526 1527 1528 1529 1530 1531 1532 1533 1534 1535 1536 1537 1538 1539 1540 1541 1542 1543 1544 1545 1546 1547 1548 1549 1550 1551 1552 1553 1554 1555 1556 1557 1558 1559 1560 1561 1562 1563 1564 1565 1566 1567 1568 1569 1570 1571 1572 1573 1574 1575 1576 1577 1578 1579 1580 1581 1582 1583 1584 1585 1586 1587 1588 1589 1590 1591 1592 1593 1594 1595 1596 1597 1598 1599 1600 1601 1602 1603 1604 1605 1606 1607 1608 1609 1610 1611 1612 1613 1614 1615 1616 1617 1618 1619 1620 1621 1622 1623 1624 1625 1626 1627 1628 1629 1630 1631 1632 1633 1634 1635 1636 1637 1638 1639 1640 1641 1642 1643 1644 1645 1646 1647 1648 1649 1650 1651 1652 1653 1654 1655 1656 1657 1658 1659 1660 1661 1662 1663 1664 1665 1666 1667 1668 1669 1670 1671 1672 1673 1674 1675 1676 1677 1678 1679 1680 1681 1682 1683 1684 1685 1686 1687 1688 1689 1690 1691 1692 1693 1694 1695 1696 1697 1698 1699 1700 1701 1702 1703 1704 1705 1706 1707 1708 1709 1710 1711 1712 1713 1714 1715 1716 1717 1718 1719 1720 1721 1722 1723 1724 1725 1726 1727 1728 1729 1730 1731 1732 1733 1734 1735 1736 1737 1738 1739 1740 1741 1742 1743 1744 1745 1746 1747 1748 1749 1750 1751 1752 1753 1754 1755 1756 1757 1758 1759 1760 1761 1762 1763 1764 1765 1766 1767 1768 1769 1770 1771 1772 1773 1774 1775 1776 1777 1778 1779 1780 1781 1782 1783 1784 1785 1786 1787 1788 1789 1790 1791 1792 1793 1794 1795 1796 1797 1798 1799 1800 1801 1802 1803 1804 1805 1806 1807 1808 1809 1810 1811 1812 1813 1814 1815 1816 1817 1818 1819 1820 1821 1822 1823 1824 1825 1826 1827 1828 1829 1830 1831 1832 1833 1834 1835 1836 1837 1838 1839 1840 1841 1842 1843 1844 1845 1846 1847 1848 1849 1850 1851 1852 1853 1854 1855 1856 1857 1858 1859 1860 1861 1862 1863 1864 1865 1866 1867 1868 1869 1870 1871 1872 1873 1874 1875 1876 1877 1878 1879 1880 1881 1882 1883 1884 1885 1886 1887 1888 1889 1890 1891 1892 1893 1894 1895 1896 1897 1898 1899 1900 1901 1902 1903 1904 1905 1906 1907 1908 1909 1910 1911 1912 1913 1914 1915 1916 1917 1918 1919 1920 1921 1922 1923 1924 1925 1926 1927 1928 1929 1930 1931 1932 1933 1934 1935 1936 1937 1938 1939 1940 1941 1942 1943 1944 1945 1946 1947 1948 1949 1950 1951 1952 1953 1954 1955 1956 1957 1958 1959 1960 1961 1962 1963 1964 1965 1966 1967 1968 1969 1970 1971 1972 1973 1974 1975 1976 1977 1978 1979 1980 1981 1982 1983 1984 1985 1986 1987 1988 1989 1990 1991 1992 1993 1994 1995 1996 1997 1998 1999 2000 2001 2002 2003 2004 2005 2006 2007 2008 2009 2010 2011 2012 2013 2014 2015 2016 2017 2018 2019 2020 2021 2022 2023 2024 2025 2026 2027 2028 2029 2030 2031 2032 2033 2034 2035 2036 2037 2038 2039 2040 2041 2042 2043 2044 2045 2046 2047 2048 2049 2050 2051 2052 2053 2054 2055 2056 2057 2058 2059 2060 2061 2062 2063 2064 2065 2066 2067 2068 2069 2070 2071 2072 2073 2074 2075 2076 2077 2078 2079 2080 2081 2082 2083 2084 2085 2086 2087 2088 2089 2090 2091 2092 2093 2094 2095 2096 2097 2098 2099 2100 2101 2102 2103 2104 2105 2106 2107 2108 2109 2110 2111 2112 2113 2114 2115 2116 2117 2118 2119 2120 2121 2122 2123 2124 2125 2126 2127 2128 2129 2130 2131 2132 2133 2134 2135 2136 2137 2138 2139 2140 2141 2142 2143 2144 2145 2146 2147 2148 2149 2150 2151 2152 2153 2154 2155 2156 2157 2158 2159 2160 2161 2162 2163 2164 2165 2166 2167 2168 2169 2170 2171 2172 2173 2174 2175 2176 2177 2178 2179 2180 2181 2182 2183 2184 2185 2186 2187 2188 2189 2190 2191 2192 2193 2194 2195 2196 2197 2198 2199 2200 2201 2202 2203 2204 2205 2206 2207 2208 2209 2210 2211 2212 2213 2214 2215 2216 2217 2218 2219 2220 2221 2222 2223 2224 2225 2226 2227 2228 2229 2230 2231 2232 2233 2234 2235 2236 2237 2238 2239 2240 2241 2242 2243 2244 2245 2246 2247 2248 2249 2250 2251 2252 2253 2254 2255 2256 2257 2258 2259 2260 2261 2262 2263 2264 2265 2266 2267 2268 2269 2270 2271 2272 2273 2274 2275 2276 2277 2278 2279 2280 2281 2282 2283 2284 2285 2286 2287 2288 2289 2290 2291 2292 2293 2294 2295 2296 2297 2298 2299 2300 2301 2302 2303 2304 2305 2306 2307 2308 2309 2310 2311 2312 2313 2314 2315 2316 2317 2318 2319 2320 2321 2322 2323 2324 2325 2326 2327 2328 2329 2330 2331 2332 2333 2334 2335 2336 2337 2338 2339 2340 2341 2342 2343 2344 2345 2346 2347 2348 2349 2350 2351 2352 2353 2354 2355 2356 2357 2358 2359 2360 2361 2362 2363 2364 2365 2366 2367 2368 2369 2370 2371 2372 2373 2374 2375 2376 2377 2378 2379 2380 2381 2382 2383 2384 2385 2386 2387 2388 2389 2390 2391 2392 2393 2394 2395 2396 2397 2398 2399 2400 2401 2402 2403 2404 2405 2406 2407 2408 2409 2410 2411 2412 2413 2414 2415 2416 2417 2418 2419 2420 2421 2422 2423 2424 2425 2426 2427 2428 2429 2430 2431 2432 2433 2434 2435 2436 2437 2438 2439 2440 2441 2442 2443 2444 2445 2446 2447 2448 2449 2450 2451 2452 2453 2454 2455 2456 2457 2458 2459 2460 2461 2462 2463 2464 2465 2466 2467 2468 2469 2470 2471 2472 2473 2474 2475 2476 2477 2478 2479 2480 2481 2482 2483 2484 2485 2486 2487 2488 2489 2490 2491 2492 2493 2494 2495 2496 2497 2498 2499 2500 2501 2502 2503 2504 2505 2506 2507 2508 2509 2510 2511 2512 2513 2514 2515 2516 2517 2518 2519 2520 2521 2522 2523 2524 2525 2526 2527 2528 2529 2530 2531 2532 2533 2534 2535 2536 2537 2538 2539 2540 2541 2542 2543 2544 2545 2546 2547 2548 2549 2550 2551 2552 2553 2554 2555 2556 2557 2558 2559 2560 2561 2562 2563 2564 2565 2566 2567 2568 2569 2570 2571 2572 2573 2574 2575 2576 2577 2578 2579 2580 2581 2582 2583 2584 2585 2586 2587 2588 2589 2590 2591 2592 2593 2594 2595 2596 2597 2598 2599 2600 2601 2602 2603 2604 2605 2606 2607 2608 2609 2610 2611 2612 2613 2614 2615 2616 2617 2618 2619 2620 2621 2622 2623 2624 2625 2626 2627 2628 2629 2630 2631 2632 2633 2634 2635 2636 2637 2638 2639 2640 2641 2642 2643 2644 2645 2646 2647 2648 2649 2650 2651 2652 2653 2654 2655 2656 2657 2658 2659 2660 2661 2662 2663 2664 2665 2666 2667 2668 2669 2670 2671 2672 2673 2674 2675 2676 2677 2678 2679 2680 2681 2682 2683 2684 2685 2686 2687 2688 2689 2690 2691 2692 2693 2694 2695 2696 2697 2698 2699 2700 2701 2702 2703 2704 2705 2706 2707 2708 2709 2710 2711 2712 2713 2714 2715 2716 2717 2718 2719 2720 2721 2722 2723 2724 2725 2726 2727 2728 2729 2730 2731 2732 2733 2734 2735 2736 2737 2738 2739 2740 2741 2742 2743 2744 2745 2746 2747 2748 2749 2750 2751 2752 2753 2754 2755 2756 2757 2758 2759 2760 2761 2762 2763 2764 2765 2766 2767 2768 2769 2770 2771 2772 2773 2774 2775 2776 2777 2778 2779 2780 2781 2782 2783 2784 2785 2786 2787 2788 2789 2790 2791 2792 2793 2794 2795 2796 2797 2798 2799 2800 2801 2802 2803 2804 2805 2806 2807 2808 2809 2810 2811 2812 2813 2814 2815 2816 2817 2818 2819 2820 2821 2822 2823 2824 2825 2826 2827 2828 2829 2830 2831 2832 2833 2834 2835 2836 2837 2838 2839 2840 2841 2842 2843 2844 2845 2846 2847 2848 2849 2850 2851 2852 2853 2854 2855 2856 2857 2858 2859 2860 2861 2862 2863 2864 2865 2866 2867 2868 2869 2870 2871 2872 2873 2874 2875 2876 2877 2878 2879 2880 2881 2882 2883 2884 2885 2886 2887 2888 2889 2890 2891 2892 2893 2894 2895 2896 2897 2898 2899 2900 2901 2902 2903 2904 2905 2906 2907 2908 2909 2910 2911 2912 2913 2914 2915 2916 2917 2918 2919 2920 2921 2922 2923 2924 2925 2926 2927 2928 2929 2930 2931 2932 2933 2934 2935 2936 2937 2938 2939 2940 2941 2942 2943 2944 2945 2946 2947 2948 2949 2950 2951 2952 2953 2954 2955 2956 2957 2958 2959 2960 2961 2962 2963 2964 2965 2966 2967 2968 2969 2970 2971 2972 2973 2974 2975 2976 2977 2978 2979 2980 2981 2982 2983 2984 2985 2986 2987 2988 2989 2990 2991 2992 2993 2994 2995 2996 2997 2998 2999 3000 3001 3002 3003 3004 3005 3006 3007 3008 3009 3010 3011 3012 3013 3014 3015 3016 3017 3018 3019 3020 3021 3022 3023 3024 3025 3026 3027 3028 3029 3030 3031 3032 3033 3034 3035 3036 3037 3038 3039 3040 3041 3042 3043 3044 3045 3046 3047 3048 3049 3050 3051 3052 3053 3054 3055 3056 3057 3058 3059 3060 3061 3062 3063 3064 3065 3066 3067 3068 3069 3070 3071 3072 3073 3074 3075 3076 3077 3078 3079 3080 3081 3082 3083 3084 3085 3086 3087 3088 3089 3090 3091 3092 3093 3094 3095 3096 3097 3098 3099 3100 3101 3102 3103 3104 3105 3106 3107 3108 3109 3110 3111 3112 3113 3114 3115 3116 3117 3118 3119 3120 3121 3122 3123 3124 3125 3126 3127 3128 3129 3130 3131 3132 3133 3134 3135 3136 3137 3138 3139 3140 3141 3142 3143 3144 3145 3146 3147 3148 3149 3150 3151 3152 3153 3154 3155 3156 3157 3158 3159 3160 3161 3162 3163 3164 3165 3166 3167 3168 3169 3170 3171 3172 3173 3174 3175 3176 3177 3178 3179 3180 3181 3182 3183 3184 3185 3186 3187 3188 3189 3190 3191 3192 3193 3194 3195 3196 3197 3198 3199 3200 3201 3202 3203 3204 3205 3206 3207 3208 3209 3210 3211 3212 3213 3214 3215 3216 3217 3218 3219 3220 3221 3222 3223 3224 3225 3226 3227 3228 3229 3230 3231 3232 3233 3234 3235 3236 3237 3238 3239 3240 3241 3242 3243 3244 3245 3246 3247 3248 3249 3250 3251 3252 3253 3254 3255 3256 3257 3258 3259 3260 3261 3262 3263 3264 3265 3266 3267 3268 3269 3270 3271 3272 3273 3274 3275 3276 3277 3278 3279 3280 3281 3282 3283 3284 3285 3286 3287 3288 3289 3290 3291 3292 3293 3294 3295 3296 3297 3298 3299 3300 3301 3302 3303 3304 3305 3306 3307 3308 3309 3310 3311 3312 3313 3314 3315 3316 3317 3318 3319 3320 3321 3322 3323 3324 3325 3326 3327 3328 3329 3330 3331 3332 3333 3334 3335 3336 3337 3338 3339 3340 3341 3342 3343 3344 3345 3346 3347 3348 3349 3350 3351 3352 3353 3354 3355 3356 3357 3358 3359 3360 3361 3362 3363 3364 3365 3366 3367 3368 3369 3370 3371 3372 3373 3374 3375 3376 3377 3378 3379 3380 3381 3382 3383 3384 3385 3386 3387 3388 3389 3390 3391 3392 3393 3394 3395 3396 3397 3398 3399 3400 3401 3402 3403 3404 3405 3406 3407 3408 3409 3410 3411 3412 3413 3414 3415 3416 3417 3418 3419 3420 3421 3422 3423 3424 3425 3426 3427 3428 3429 3430 3431 3432 3433 3434 3435 3436 3437 3438 3439 3440 3441 3442 3443 3444 3445 3446 3447 3448 3449 3450 3451 3452 3453 3454 3455 3456 3457 3458 3459 3460 3461 3462 3463 3464 3465 3466 3467 3468 3469 3470 3471 3472 3473 3474 3475 3476 3477 3478 3479 3480 3481 3482 3483 3484 3485 3486 3487 3488 3489 3490 3491 3492 3493 3494 3495 3496 3497 3498 3499 3500 3501 3502 3503 3504 3505 3506 3507 3508 3509 3510 3511 3512 3513 3514 3515 3516 3517 3518 3519 3520 3521 3522 3523 3524 3525 3526 3527 3528 3529 3530 3531 3532 3533 3534 3535 3536 3537 3538 3539 3540 3541 3542 3543 3544 3545 3546 3547 3548 3549 3550 3551 3552 3553 3554 3555 3556 3557 3558 3559 3560 3561 3562 3563 3564 3565 3566 3567 3568 3569 3570 3571 3572 3573 3574 3575 3576 3577 3578 3579 3580 3581 3582 3583 3584 3585 3586 3587 3588 3589 3590 3591 3592 3593 3594 3595 3596 3597 3598 3599 3600 3601 3602 3603 3604 3605 3606 3607 3608 3609 3610 3611 3612 3613 3614 3615 3616 3617 3618 3619 3620 3621 3622 3623 3624 3625 3626 3627 3628 3629 3630 3631 3632 3633 3634 3635 3636 3637 3638 3639 3640 3641 3642 3643 3644 3645 3646 3647 3648 3649 3650 3651 3652 3653 3654 3655 3656 3657 3658 3659 3660 3661 3662 3663 3664 3665 3666 3667 3668 3669 3670 3671 3672 3673 3674 3675 3676 3677 3678 3679 3680 3681 3682 3683 3684 3685 3686 3687 3688 3689 3690 3691 3692 3693 3694 3695 3696 3697 3698 3699 3700 3701 3702 3703 3704 3705 3706 3707 3708 3709 3710 3711 3712 3713 3714 3715 3716 3717 3718 3719 3720 3721 3722 3723 3724 3725 3726 3727 3728 3729 3730 3731 3732 3733 3734 3735 3736 3737 3738 3739 3740 3741 3742 3743 3744 3745 3746 3747 3748 3749 3750 3751 3752 3753 3754 3755 3756 3757 3758 3759 3760 3761 3762 3763 3764 3765 3766 3767 3768 3769 3770 3771 3772 3773 3774 3775 3776 3777 3778 3779 3780 3781 3782 3783 3784 3785 3786 3787 3788 3789 3790 3791 3792 3793 3794 3795 3796 3797 3798 3799 3800 3801 3802 3803 3804 3805 3806 3807 3808 3809 3810 3811 3812 3813 3814 3815 3816 3817 3818 3819 3820 3821 3822 3823 3824 3825 3826 3827 3828 3829 3830 3831 3832 3833 3834 3835 3836 3837 3838 3839 3840 3841 3842 3843 3844 3845 3846 3847 3848 3849 3850 3851 3852 3853 3854 3855 3856 3857 3858 3859 3860 3861 3862 3863 3864 3865 3866 3867 3868 3869 3870 3871 3872 3873 3874 3875 3876 3877 3878 3879 3880 3881 3882 3883 3884 3885 3886 3887 3888 3889 3890 3891 3892 3893 3894 3895 3896 3897 3898 3899 3900 3901 3902 3903 3904 3905 3906 3907 3908 3909 3910 3911 3912 3913 3914 3915 3916 3917 3918 3919 3920 3921 3922 3923 3924 3925 3926 3927 3928 3929 3930 3931 3932 3933 3934 3935 3936 3937 3938 3939 3940 3941 3942 3943 3944 3945 3946 3947 3948 3949 3950 3951 3952 3953 3954 3955 3956 3957 3958 3959 3960 3961 3962 3963 3964 3965 3966 3967 3968 3969 3970 3971 3972 3973 3974 3975 3976 3977 3978 3979 3980 3981 3982 3983 3984 3985 3986 3987 3988 3989 3990 3991 3992 3993 3994 3995 3996 3997 3998 3999 4000 4001 4002 4003 4004 4005 4006 4007 4008 4009 4010 4011 4012 4013 4014 4015 4016 4017 4018 4019 4020 4021 4022 4023 4024 4025 4026 4027 4028 4029 4030 4031 4032 4033 4034 4035 4036 4037 4038 4039 4040 4041 4042 4043 4044 4045 4046 4047 4048 4049 4050 4051 4052 4053 4054 4055 4056 4057 4058 4059 4060 4061 4062 4063 4064 4065 4066 4067 4068 4069 4070 4071 4072 4073 4074 4075 4076 4077 4078 4079 4080 4081 4082 4083 4084 4085 4086 4087 4088 4089 4090 4091 4092 4093 4094 4095 4096 4097 4098 4099 4100 4101 4102 4103 4104 4105 4106 4107 4108 4109 4110 4111 4112 4113 4114 4115 4116 4117 4118 4119 4120 4121 4122 4123 4124 4125 4126 4127 4128 4129 4130 4131 4132 4133 4134 4135 4136 4137 4138 4139 4140 4141 4142 4143 4144 4145 4146 4147 4148 4149 4150 4151 4152 4153 4154 4155 4156 4157 4158 4159 4160 4161 4162 4163 4164 4165 4166 4167 4168 4169 4170 4171 4172 4173 4174 4175 4176 4177 4178 4179 4180 4181 4182 4183 4184 4185 4186 4187 4188 4189 4190 4191 4192 4193 4194 4195 4196 4197 4198 4199 4200 4201 4202 4203 4204 4205 4206 4207 4208 4209 4210 4211 4212 4213 4214 4215 4216 4217 4218 4219 4220 4221 4222 4223 4224 4225 4226 4227 4228 4229 4230 4231 4232 4233 4234 4235 4236 4237 4238 4239 4240 4241 4242 4243 4244 4245 4246 4247 4248 4249 4250 4251 4252 4253 4254 4255 4256 4257 4258 4259 4260 4261 4262 4263 4264 4265 4266 4267 4268 4269 4270 4271 4272 4273 4274 4275 4276 4277 4278 4279 4280 4281 4282 4283 4284 4285 4286 4287 4288 4289 4290 4291 4292 4293 4294 4295 4296 4297 4298 4299 4300 4301 4302 4303 4304 4305 4306 4307 4308 4309 4310 4311 4312 4313 4314 4315 4316 4317 4318 4319 4320 4321 4322 4323 4324 4325 4326 4327 4328 4329 4330 4331 4332 4333 4334 4335 4336 4337 4338 4339 4340 4341 4342 4343 4344 4345 4346 4347 4348 4349 4350 4351 4352 4353 4354 4355 4356 4357 4358 4359 4360 4361 4362 4363 4364 4365 4366 4367 4368 4369 4370 4371 4372 4373 4374 4375 4376 4377 4378 4379 4380 4381 4382 4383 4384 4385 4386 4387 4388 4389 4390 4391 4392 4393 4394 4395 4396 4397 4398 4399 4400 4401 4402 4403 4404 4405 4406 4407 4408 4409 4410 4411 4412 4413 4414 4415 4416 4417 4418 4419 4420 4421 4422 4423 4424 4425 4426 4427 4428 4429 4430 4431 4432 4433 4434 4435 4436 4437 4438 4439 4440 4441 4442 4443 4444 4445 4446 4447 4448 4449 4450 4451 4452 4453 4454 4455 4456 4457 4458 4459 4460 4461 4462 4463 4464 4465 4466 4467 4468 4469 4470 4471 4472 4473 4474 4475 4476 4477 4478 4479 4480 4481 4482 4483 4484 4485 4486 4487 4488 4489 4490 4491 4492 4493 4494 4495 4496 4497 4498 4499 4500 4501 4502 4503 4504 4505 4506 4507 4508 4509 4510 4511 4512 4513 4514 4515 4516 4517 4518 4519 4520 4521 4522 4523 4524 4525 4526 4527 4528 4529 4530 4531 4532 4533 4534 4535 4536 4537 4538 4539 4540 4541 4542 4543 4544 4545 4546 4547 4548 4549 4550 4551 4552 4553 4554 4555 4556 4557 4558 4559 4560 4561 4562 4563 4564 4565 4566 4567 4568 4569 4570 4571 4572 4573 4574 4575 4576 4577 4578 4579 4580 4581 4582 4583 4584 4585 4586 4587 4588 4589 4590 4591 4592 4593 4594 4595 4596 4597 4598 4599 4600 4601 4602 4603 4604 4605 4606 4607 4608 4609 4610 4611 4612 4613 4614 4615 4616 4617 4618 4619 4620 4621 4622 4623 4624 4625 4626 4627 4628 4629 4630 4631 4632 4633 4634 4635 4636 4637 4638 4639 4640 4641 4642 4643 4644 4645 4646 4647 4648 4649 4650 4651 4652 4653 4654 4655 4656 4657 4658 4659 4660 4661 4662 4663 4664 4665 4666 4667 4668 4669 4670 4671 4672 4673 4674 4675 4676 4677 4678 4679 4680 4681 4682 4683 4684 4685 4686 4687 4688 4689 4690 4691 4692 4693 4694 4695 4696 4697 4698 4699 4700 4701 4702 4703 4704 4705 4706 4707 4708 4709 4710 4711 4712 4713 4714 4715 4716 4717 4718 4719 4720 4721 4722 4723 4724 4725 4726 4727 4728 4729 4730 4731 4732 4733 4734 4735 4736 4737 4738 4739 4740 4741 4742 4743 4744 4745 4746 4747 4748 4749 4750 4751 4752 4753 4754 4755 4756 4757 4758 4759 4760 4761 4762 4763 4764 4765 4766 4767 4768 4769 4770 4771 4772 4773 4774 4775 4776 4777 4778 4779 4780 4781 4782 4783 4784 4785 4786 4787 4788 4789 4790 4791 4792 4793 4794 4795 4796 4797 4798 4799 4800 4801 4802 4803 4804 4805 4806 4807 4808 4809 4810 4811 4812 4813 4814 4815 4816 4817 4818 4819 4820 4821 4822 4823 4824 4825 4826 4827 4828 4829 4830 4831 4832 4833 4834 4835 4836 4837 4838 4839 4840 4841 4842 4843 4844 4845 4846 4847 4848 4849 4850 4851 4852 4853 4854 4855 4856 4857 4858 4859 4860 4861 4862 4863 4864 4865 4866 4867 4868 4869 4870 4871 4872 4873 4874 4875 4876 4877 4878 4879 4880 4881 4882 4883 4884 4885 4886 4887 4888 4889 4890 4891 4892 4893 4894 4895 4896 4897 4898 4899 4900 4901 4902 4903 4904 4905 4906 4907 4908 4909 4910 4911 4912 4913 4914 4915 4916 4917 4918 4919 4920 4921 4922 4923 4924 4925 4926 4927 4928 4929 4930 4931 4932 4933 4934 4935 4936 4937 4938 4939 4940 4941 4942 4943 4944 4945 4946 4947 4948 4949 4950 4951 4952 4953 4954 4955 4956 4957 4958 4959 4960 4961 4962 4963 4964 4965 4966 4967 4968 4969 4970 4971 4972 4973 4974 4975 4976 4977 4978 4979 4980 4981 4982 4983 4984 4985 4986 4987 4988 4989 4990 4991 4992 4993 4994 4995 4996 4997 4998 4999 5000 5001 5002 5003 5004 5005 5006 5007 5008 5009 5010 5011 5012 5013 5014 5015 5016 5017 5018 5019 5020 5021 5022 5023 5024 5025 5026 5027 5028 5029 5030 5031 5032 5033 5034 5035 5036 5037 5038 5039 5040 5041 5042 5043 5044 5045 5046 5047 5048 5049 5050 5051 5052 5053 5054 5055 5056 5057 5058 5059 5060 5061 5062 5063 5064 5065 5066 5067 5068 5069 5070 5071 5072 5073 5074 5075 5076 5077 5078 5079 5080 5081 5082 5083 5084 5085 5086 5087 5088 5089 5090 5091 5092 5093 5094 5095 5096 5097 5098 5099 5100 5101 5102 5103 5104 5105 5106 5107 5108 5109 5110 5111 5112 5113 5114 5115 5116 5117 5118 5119 5120 5121 5122 5123 5124 5125 5126 5127 5128 5129 5130 5131 5132 5133 5134 5135 5136 5137 5138 5139 5140 5141 5142 5143 5144 5145 5146 5147 5148 5149 5150 5151 5152 5153 5154 5155 5156 5157 5158 5159 5160 5161 5162 5163 5164 5165 5166 5167 5168 5169 5170 5171 5172 5173 5174 5175 5176 5177 5178 5179 5180 5181 5182 5183 5184 5185 5186 5187 5188 5189 5190 5191 5192 5193 5194 5195 5196 5197 5198 5199 5200 5201 5202 5203 5204 5205 5206 5207 5208 5209 5210 5211 5212 5213 5214 5215 5216 5217 5218 5219 5220 5221 5222 5223 5224 5225 5226 5227 5228 5229 5230 5231 5232 5233 5234 5235 5236 5237 5238 5239 5240 5241 5242 5243 5244 5245 5246 5247 5248 5249 5250 5251 5252 5253 5254 5255 5256 5257 5258 5259 5260 5261 5262 5263 5264 5265 5266 5267 5268 5269 5270 5271 5272 5273 5274 5275 5276 5277 5278 5279 5280 5281 5282 5283 5284 5285 5286 5287 5288 5289 5290 5291 5292 5293 5294 5295 5296 0
c p weight 1 6.6666666666666675e-06 0
c p weight -1 0.99999333333333329 0
c p weight 2 6.6666666666666675e-06 0
c p weight -2 0.99999333333333329 0
c p weight 3 6.6666666666666675e-06 0
c p weight -3 0.99999333333333329 0
c p weight 4 6.6666666666666675e-06 0
c p weight -4 0.99999333333333329 0
c p weight 5 6.6666666666666675e-06 0
c p weight -5 0.99999333333333329 0
c p weight 6 6.6666666666666675e-06 0
c p weight -6 0.99999333333333329 0
c p weight 7 6.6666666666666675e-06 0
c p weight -7 0.99999333333333329 0
c p weight 8 6.6666666666666675e-06 0
c p weight -8 0.99999333333333329 0
c p weight 9 6.6666666666666675e-06 0
c p weight -9 0.99999333333333329 0
c p weight 10 6.6666666666666675e-06 0
c p weight -10 0.99999333333333329 0
c p weight 11 6.6666666666666675e-06 0
c p weight -11 0.99999333333333329 0
c p weight 12 6.6666666666666675e-06 0
c p weight -12 0.99999333333333329 0
c p weight 13 6.6666666666666671e-07 0
c p weight -13 0.99999000000000005 0
c p weight 14 1 0
c p weight -14 1 0
c p weight 15 1 0
c p weight -15 1 0
c p weight 16 1 0
c p weight -16 1 0
c p weight 17 1 0
c p weight -17 1 0
c p weight 18 3.3333333333333337e-06 0
c p weight -18 0.99999000000000005 0
c p weight 19 1 0
c p weight -19 1 0
c p weight 20 1 0
c p weight -20 1 0
c p weight 21 3.3333333333333337e-06 0
c p weight -21 0.99999000000000005 0
c p weight 22 1 0
c p weight -22 1 0
c p weight 23 1 0
c p weight -23 1 0
c p weight 24 3.3333333333333337e-06 0
c p weight -24 0.99999000000000005 0
c p weight 25 1 0
c p weight -25 1 0
c p weight 26 1 0
c p weight -26 1 0
c p weight 27 3.3333333333333337e-06 0
c p weight -27 0.99999000000000005 0
c p weight 28 1 0
c p weight -28 1 0
c p weight 29 1 0
c p weight -29 1 0
c p weight 30 3.3333333333333337e-06 0
c p weight -30 0.99999000000000005 0
c p weight 31 1 0
c p weight -31 1 0
c p weight 32 1 0
c p weight -32 1 0
c p weight 33 3.3333333333333337e-06 0
c p weight -33 0.99999000000000005 0
c p weight 34 1 0
c p weight -34 1 0
c p weight 35 1 0
c p weight -35 1 0
c p weight 36 3.3333333333333337e-06 0
c p weight -36 0.99999000000000005 0
c p weight 37 1 0
c p weight -37 1 0
c p weight 38 1 0
c p weight -38 1 0
c p weight 39 3.3333333333333337e-06 0
c p weight -39 0.99999000000000005 0
c p weight 40 1 0
c p weight -40 1 0
c p weight 41 1 0
c p weight -41 1 0
c p weight 42 3.3333333333333337e-06 0
c p weight -42 0.99999000000000005 0
c p weight 43 1 0
c p weight -43 1 0
c p weight 44 1 0
c p weight -44 1 0
c p weight 45 3.3333333333333337e-06 0
c p weight -45 0.99999000000000005 0
c p weight 46 1 0
c p weight -46 1 0
c p weight 47 1 0
c p weight -47 1 0
c p weight 48 3.3333333333333337e-06 0
c p weight -48 0.99999000000000005 0
c p weight 49 1 0
c p weight -49 1 0
c p weight 50 1 0
c p weight -50 1 0
c p weight 51 3.3333333333333337e-06 0
c p weight -51 0.99999000000000005 0
c p weight 52 1 0
c p weight -52 1 0
c p weight 53 1 0
c p weight -53 1 0
c p weight 54 3.3333333333333337e-06 0
c p weight -54 0.99999000000000005 0
c p weight 55 1 0
c p weight -55 1 0
c p weight 56 1 0
c p weight -56 1 0
c p weight 57 3.3333333333333337e-06 0
c p weight -57 0.99999000000000005 0
c p weight 58 1 0
c p weight -58 1 0
c p weight 59 1 0
c p weight -59 1 0
c p weight 60 3.3333333333333337e-06 0
c p weight -60 0.99999000000000005 0
c p weight 61 1 0
c p weight -61 1 0
c p weight 62 1 0
c p weight -62 1 0
c p weight 63 3.3333333333333337e-06 0
c p weight -63 0.99999000000000005 0
c p weight 64 1 0
c p weight -64 1 0
c p weight 65 1 0
c p weight -65 1 0
c p weight 66 3.3333333333333337e-06 0
c p weight -66 0.99999000000000005 0
c p weight 67 1 0
c p weight -67 1 0
c p weight 68 1 0
c p weight -68 1 0
c p weight 69 3.3333333333333337e-06 0
c p weight -69 0.99999000000000005 0
c p weight 70 1 0
c p weight -70 1 0
c p weight 71 1 0
c p weight -71 1 0
c p weight 72 3.3333333333333337e-06 0
c p weight -72 0.99999000000000005 0
c p weight 73 1 0
c p weight -73 1 0
c p weight 74 1 0
c p weight -74 1 0
c p weight 75 6.6666666666666671e-07 0
c p weight -75 0.99999000000000005 0
c p weight 76 1 0
c p weight -76 1 0
c p weight 77 1 0
c p weight -77 1 0
c p weight 78 1 0
c p weight -78 1 0
c p weight 79 1 0
c p weight -79 1 0
c p weight 80 3.3333333333333337e-06 0
c p weight -80 0.99999000000000005 0
c p weight 81 1 0
c p weight -81 1 0
c p weight 82 1 0
c p weight -82 1 0
c p weight 83 3.3333333333333337e-06 0
c p weight -83 0.99999000000000005 0
c p weight 84 1 0
c p weight -84 1 0
c p weight 85 1 0
c p weight -85 1 0
c p weight 86 3.3333333333333337e-06 0
c p weight -86 0.99999000000000005 0
c p weight 87 1 0
c p weight -87 1 0
c p weight 88 1 0
c p weight -88 1 0
c p weight 89 3.3333333333333337e-06 0
c p weight -89 0.99999000000000005 0
c p weight 90 1 0
c p weight -90 1 0
c p weight 91 1 0
c p weight -91 1 0
c p weight 92 3.3333333333333337e-06 0
c p weight -92 0.99999000000000005 0
c p weight 93 1 0
c p weight -93 1 0
c p weight 94 1 0
c p weight -94 1 0
c p weight 95 3.3333333333333337e-06 0
c p weight -95 0.99999000000000005 0
c p weight 96 1 0
c p weight -96 1 0
c p weight 97 1 0
c p weight -97 1 0
c p weight 98 3.3333333333333337e-06 0
c p weight -98 0.99999000000000005 0
c p weight 99 1 0
c p weight -99 1 0
c p weight 100 1 0
c p weight -100 1 0
c p weight 101 3.3333333333333337e-06 0
c p weight -101 0.99999000000000005 0
c p weight 102 1 0
c p weight -102 1 0
c p weight 103 1 0
c p weight -103 1 0
c p weight 104 3.3333333333333337e-06 0
c p weight -104 0.99999000000000005 0
c p weight 105 1 0
c p weight -105 1 0
c p weight 106 1 0
c p weight -106 1 0
c p weight 107 3.3333333333333337e-06 0
c p weight -107 0.99999000000000005 0
c p weight 108 1 0
c p weight -108 1 0
c p weight 109 1 0
c p weight -109 1 0
c p weight 110 3.3333333333333337e-06 0
c p weight -110 0.99999000000000005 0
c p weight 111 1 0
c p weight -111 1 0
c p weight 112 1 0
c p weight -112 1 0
c p weight 113 3.3333333333333337e-06 0
c p weight -113 0.99999000000000005 0
c p weight 114 1 0
c p weight -114 1 0
c p weight 115 1 0
c p weight -115 1 0
c p weight 116 3.3333333333333337e-06 0
c p weight -116 0.99999000000000005 0
c p weight 117 1 0
c p weight -117 1 0
c p weight 118 1 0
c p weight -118 1 0
c p weight 119 3.3333333333333337e-06 0
c p weight -119 0.99999000000000005 0
c p weight 120 1 0
c p weight -120 1 0
c p weight 121 1 0
c p weight -121 1 0
c p weight 122 3.3333333333333337e-06 0
c p weight -122 0.99999000000000005 0
c p weight 123 1 0
c p weight -123 1 0
c p weight 124 1 0
c p weight -124 1 0
c p weight 125 3.3333333333333337e-06 0
c p weight -125 0.99999000000000005 0
c p weight 126 1 0
c p weight -126 1 0
c p weight 127 1 0
c p weight -127 1 0
c p weight 128 3.3333333333333337e-06 0
c p weight -128 0.99999000000000005 0
c p weight 129 1 0
c p weight -129 1 0
c p weight 130 1 0
c p weight -130 1 0
c p weight 131 3.3333333333333337e-06 0
c p weight -131 0.99999000000000005 0
c p weight 132 1 0
c p weight -132 1 0
c p weight 133 1 0
c p weight -133 1 0
c p weight 134 3.3333333333333337e-06 0
c p weight -134 0.99999000000000005 0
c p weight 135 1 0
c p weight -135 1 0
c p weight 136 1 0
c p weight -136 1 0
c p weight 137 6.6666666666666671e-07 0
c p weight -137 0.99999000000000005 0
c p weight 138 1 0
c p weight -138 1 0
c p weight 139 1 0
c p weight -139 1 0
c p weight 140 1 0
c p weight -140 1 0
c p weight 141 1 0
c p weight -141 1 0
c p weight 142 3.3333333333333337e-06 0
c p weight -142 0.99999000000000005 0
c p weight 143 1 0
c p weight -143 1 0
c p weight 144 1 0
c p weight -144 1 0
c p weight 145 3.3333333333333337e-06 0
c p weight -145 0.99999000000000005 0
c p weight 146 1 0
c p weight -146 1 0
c p weight 147 1 0
c p weight -147 1 0
c p weight 148 3.3333333333333337e-06 0
c p weight -148 0.99999000000000005 0
c p weight 149 1 0
c p weight -149 1 0
c p weight 150 1 0
c p weight -150 1 0
c p weight 151 3.3333333333333337e-06 0
c p weight -151 0.99999000000000005 0
c p weight 152 1 0
c p weight -152 1 0
c p weight 153 1 0
c p weight -153 1 0
c p weight 154 3.3333333333333337e-06 0
c p weight -154 0.99999000000000005 0
c p weight 155 1 0
c p weight -155 1 0
c p weight 156 1 0
c p weight -156 1 0
c p weight 157 3.3333333333333337e-06 0
c p weight -157 0.99999000000000005 0
c p weight 158 1 0
c p weight -158 1 0
c p weight 159 1 0
c p weight -159 1 0
c p weight 160 3.3333333333333337e-06 0
c p weight -160 0.99999000000000005 0
c p weight 161 1 0
c p weight -161 1 0
c p weight 162 1 0
c p weight -162 1 0
c p weight 163 3.3333333333333337e-06 0
c p weight -163 0.99999000000000005 0
c p weight 164 1 0
c p weight -164 1 0
c p weight 165 1 0
c p weight -165 1 0
c p weight 166 3.3333333333333337e-06 0
c p weight -166 0.99999000000000005 0
c p weight 167 1 0
c p weight -167 1 0
c p weight 168 1 0
c p weight -168 1 0
c p weight 169 3.3333333333333337e-06 0
c p weight -169 0.99999000000000005 0
c p weight 170 1 0
c p weight -170 1 0
c p weight 171 1 0
c p weight -171 1 0
c p weight 172 3.3333333333333337e-06 0
c p weight -172 0.99999000000000005 0
c p weight 173 1 0
c p weight -173 1 0
c p weight 174 1 0
c p weight -174 1 0
c p weight 175 3.3333333333333337e-06 0
c p weight -175 0.99999000000000005 0
c p weight 176 1 0
c p weight -176 1 0
c p weight 177 1 0
c p weight -177 1 0
c p weight 178 3.3333333333333337e-06 0
c p weight -178 0.99999000000000005 0
c p weight 179 1 0
c p weight -179 1 0
c p weight 180 1 0
c p weight -180 1 0
c p weight 181 3.3333333333333337e-06 0
c p weight -181 0.99999000000000005 0
c p weight 182 1 0
c p weight -182 1 0
c p weight 183 1 0
c p weight -183 1 0
c p weight 184 3.3333333333333337e-06 0
c p weight -184 0.99999000000000005 0
c p weight 185 1 0
c p weight -185 1 0
c p weight 186 1 0
c p weight -186 1 0
c p weight 187 3.3333333333333337e-06 0
c p weight -187 0.99999000000000005 0
c p weight 188 1 0
c p weight -188 1 0
c p weight 189 1 0
c p weight -189 1 0
c p weight 190 3.3333333333333337e-06 0
c p weight -190 0.99999000000000005 0
c p weight 191 1 0
c p weight -191 1 0
c p weight 192 1 0
c p weight -192 1 0
c p weight 193 3.3333333333333337e-06 0
c p weight -193 0.99999000000000005 0
c p weight 194 1 0
c p weight -194 1 0
c p weight 195 1 0
c p weight -195 1 0
c p weight 196 3.3333333333333337e-06 0
c p weight -196 0.99999000000000005 0
c p weight 197 1 0
c p weight -197 1 0
c p weight 198 1 0
c p weight -198 1 0
c p weight 199 6.6666666666666671e-07 0
c p weight -199 0.99999000000000005 0
c p weight 200 1 0
c p weight -200 1 0
c p weight 201 1 0
c p weight -201 1 0
c p weight 202 1 0
c p weight -202 1 0
c p weight 203 1 0
c p weight -203 1 0
c p weight 204 3.3333333333333337e-06 0
c p weight -204 0.99999000000000005 0
c p weight 205 1 0
c p weight -205 1 0
c p weight 206 1 0
c p weight -206 1 0
c p weight 207 3.3333333333333337e-06 0
c p weight -207 0.99999000000000005 0
c p weight 208 1 0
c p weight -208 1 0
c p weight 209 1 0
c p weight -209 1 0
c p weight 210 3.3333333333333337e-06 0
c p weight -210 0.99999000000000005 0
c p weight 211 1 0
c p weight -211 1 0
c p weight 212 1 0
c p weight -212 1 0
c p weight 213 3.3333333333333337e-06 0
c p weight -213 0.99999000000000005 0
c p weight 214 1 0
c p weight -214 1 0
c p weight 215 1 0
c p weight -215 1 0
c p weight 216 3.3333333333333337e-06 0
c p weight -216 0.99999000000000005 0
c p weight 217 1 0
c p weight -217 1 0
c p weight 218 1 0
c p weight -218 1 0
c p weight 219 3.3333333333333337e-06 0
c p weight -219 0.99999000000000005 0
c p weight 220 1 0
c p weight -220 1 0
c p weight 221 1 0
c p weight -221 1 0
c p weight 222 3.3333333333333337e-06 0
c p weight -222 0.99999000000000005 0
c p weight 223 1 0
c p weight -223 1 0
c p weight 224 1 0
c p weight -224 1 0
c p weight 225 3.3333333333333337e-06 0
c p weight -225 0.99999000000000005 0
c p weight 226 1 0
c p weight -226 1 0
c p weight 227 1 0
c p weight -227 1 0
c p weight 228 3.3333333333333337e-06 0
c p weight -228 0.99999000000000005 0
c p weight 229 1 0
c p weight -229 1 0
c p weight 230 1 0
c p weight -230 1 0
c p weight 231 3.3333333333333337e-06 0
c p weight -231 0.99999000000000005 0
c p weight 232 1 0
c p weight -232 1 0
c p weight 233 1 0
c p weight -233 1 0
c p weight 234 3.3333333333333337e-06 0
c p weight -234 0.99999000000000005 0
c p weight 235 1 0
c p weight -235 1 0
c p weight 236 1 0
c p weight -236 1 0
c p weight 237 3.3333333333333337e-06 0
c p weight -237 0.99999000000000005 0
c p weight 238 1 0
c p weight -238 1 0
c p weight 239 1 0
c p weight -239 1 0
c p weight 240 3.3333333333333337e-06 0
c p weight -240 0.99999000000000005 0
c p weight 241 1 0
c p weight -241 1 0
c p weight 242 1 0
c p weight -242 1 0
c p weight 243 3.3333333333333337e-06 0
c p weight -243 0.99999000000000005 0
c p weight 244 1 0
c p weight -244 1 0
c p weight 245 1 0
c p weight -245 1 0
c p weight 246 3.3333333333333337e-06 0
c p weight -246 0.99999000000000005 0
c p weight 247 1 0
c p weight -247 1 0
c p weight 248 1 0
c p weight -248 1 0
c p weight 249 3.3333333333333337e-06 0
c p weight -249 0.99999000000000005 0
c p weight 250 1 0
c p weight -250 1 0
c p weight 251 1 0
c p weight -251 1 0
c p weight 252 3.3333333333333337e-06 0
c p weight -252 0.99999000000000005 0
c p weight 253 1 0
c p weight -253 1 0
c p weight 254 1 0
c p weight -254 1 0
c p weight 255 3.3333333333333337e-06 0
c p weight -255 0.99999000000000005 0
c p weight 256 1 0
c p weight -256 1 0
c p weight 257 1 0
c p weight -257 1 0
c p weight 258 3.3333333333333337e-06 0
c p weight -258 0.99999000000000005 0
c p weight 259 1 0
c p weight -259 1 0
c p weight 260 1 0
c p weight -260 1 0
c p weight 261 6.6666666666666671e-07 0
c p weight -261 0.99999000000000005 0
c p weight 262 1 0
c p weight -262 1 0
c p weight 263 1 0
c p weight -263 1 0
c p weight 264 1 0
c p weight -264 1 0
c p weight 265 1 0
c p weight -265 1 0
c p weight 266 3.3333333333333337e-06 0
c p weight -266 0.99999000000000005 0
c p weight 267 1 0
c p weight -267 1 0
c p weight 268 1 0
c p weight -268 1 0
c p weight 269 3.3333333333333337e-06 0
c p weight -269 0.99999000000000005 0
c p weight 270 1 0
c p weight -270 1 0
c p weight 271 1 0
c p weight -271 1 0
c p weight 272 3.3333333333333337e-06 0
c p weight -272 0.99999000000000005 0
c p weight 273 1 0
c p weight -273 1 0
c p weight 274 1 0
c p weight -274 1 0
c p weight 275 3.3333333333333337e-06 0
c p weight -275 0.99999000000000005 0
c p weight 276 1 0
c p weight -276 1 0
c p weight 277 1 0
c p weight -277 1 0
c p weight 278 3.3333333333333337e-06 0
c p weight -278 0.99999000000000005 0
c p weight 279 1 0
c p weight -279 1 0
c p weight 280 1 0
c p weight -280 1 0
c p weight 281 3.3333333333333337e-06 0
c p weight -281 0.99999000000000005 0
c p weight 282 1 0
c p weight -282 1 0
c p weight 283 1 0
c p weight -283 1 0
c p weight 284 3.3333333333333337e-06 0
c p weight -284 0.99999000000000005 0
c p weight 285 1 0
c p weight -285 1 0
c p weight 286 1 0
c p weight -286 1 0
c p weight 287 3.3333333333333337e-06 0
c p weight -287 0.99999000000000005 0
c p weight 288 1 0
c p weight -288 1 0
c p weight 289 1 0
c p weight -289 1 0
c p weight 290 3.3333333333333337e-06 0
c p weight -290 0.99999000000000005 0
c p weight 291 1 0
c p weight -291 1 0
c p weight 292 1 0
c p weight -292 1 0
c p weight 293 3.3333333333333337e-06 0
c p weight -293 0.99999000000000005 0
c p weight 294 1 0
c p weight -294 1 0
c p weight 295 1 0
c p weight -295 1 0
c p weight 296 3.3333333333333337e-06 0
c p weight -296 0.99999000000000005 0
c p weight 297 1 0
c p weight -297 1 0
c p weight 298 1 0
c p weight -298 1 0
c p weight 299 3.3333333333333337e-06 0
c p weight -299 0.99999000000000005 0
c p weight 300 1 0
c p weight -300 1 0
c p weight 301 1 0
c p weight -301 1 0
c p weight 302 3.3333333333333337e-06 0
c p weight -302 0.99999000000000005 0
c p weight 303 1 0
c p weight -303 1 0
c p weight 304 1 0
c p weight -304 1 0
c p weight 305 3.3333333333333337e-06 0
c p weight -305 0.99999000000000005 0
c p weight 306 1 0
c p weight -306 1 0
c p weight 307 1 0
c p weight -307 1 0
c p weight 308 3.3333333333333337e-06 0
c p weight -308 0.99999000000000005 0
c p weight 309 1 0
c p weight -309 1 0
c p weight 310 1 0
c p weight -310 1 0
c p weight 311 3.3333333333333337e-06 0
c p weight -311 0.99999000000000005 0
c p weight 312 1 0
c p weight -312 1 0
c p weight 313 1 0
c p weight -313 1 0
c p weight 314 3.3333333333333337e-06 0
c p weight -314 0.99999000000000005 0
c p weight 315 1 0
c p weight -315 1 0
c p weight 316 1 0
c p weight -316 1 0
c p weight 317 3.3333333333333337e-06 0
c p weight -317 0.99999000000000005 0
c p weight 318 1 0
c p weight -318 1 0
c p weight 319 1 0
c p weight -319 1 0
c p weight 320 3.3333333333333337e-06 0
c p weight -320 0.99999000000000005 0
c p weight 321 1 0
c p weight -321 1 0
c p weight 322 1 0
c p weight -322 1 0
c p weight 323 6.6666666666666671e-07 0
c p weight -323 0.99999000000000005 0
c p weight 324 1 0
c p weight -324 1 0
c p weight 325 1 0
c p weight -325 1 0
c p weight 326 1 0
c p weight -326 1 0
c p weight 327 1 0
c p weight -327 1 0
c p weight 328 3.3333333333333337e-06 0
c p weight -328 0.99999000000000005 0
c p weight 329 1 0
c p weight -329 1 0
c p weight 330 1 0
c p weight -330 1 0
c p weight 331 3.3333333333333337e-06 0
c p weight -331 0.99999000000000005 0
c p weight 332 1 0
c p weight -332 1 0
c p weight 333 1 0
c p weight -333 1 0
c p weight 334 3.3333333333333337e-06 0
c p weight -334 0.99999000000000005 0
c p weight 335 1 0
c p weight -335 1 0
c p weight 336 1 0
c p weight -336 1 0
c p weight 337 3.3333333333333337e-06 0
c p weight -337 0.99999000000000005 0
c p weight 338 1 0
c p weight -338 1 0
c p weight 339 1 0
c p weight -339 1 0
c p weight 340 3.3333333333333337e-06 0
c p weight -340 0.99999000000000005 0
c p weight 341 1 0
c p weight -341 1 0
c p weight 342 1 0
c p weight -342 1 0
c p weight 343 3.3333333333333337e-06 0
c p weight -343 0.99999000000000005 0
c p weight 344 1 0
c p weight -344 1 0
c p weight 345 1 0
c p weight -345 1 0
c p weight 346 3.3333333333333337e-06 0
c p weight -346 0.99999000000000005 0
c p weight 347 1 0
c p weight -347 1 0
c p weight 348 1 0
c p weight -348 1 0
c p weight 349 3.3333333333333337e-06 0
c p weight -349 0.99999000000000005 0
c p weight 350 1 0
c p weight -350 1 0
c p weight 351 1 0
c p weight -351 1 0
c p weight 352 3.3333333333333337e-06 0
c p weight -352 0.99999000000000005 0
c p weight 353 1 0
c p weight -353 1 0
c p weight 354 1 0
c p weight -354 1 0
c p weight 355 3.3333333333333337e-06 0
c p weight -355 0.99999000000000005 0
c p weight 356 1 0
c p weight -356 1 0
c p weight 357 1 0
c p weight -357 1 0
c p weight 358 3.3333333333333337e-06 0
c p weight -358 0.99999000000000005 0
c p weight 359 1 0
c p weight -359 1 0
c p weight 360 1 0
c p weight -360 1 0
c p weight 361 3.3333333333333337e-06 0
c p weight -361 0.99999000000000005 0
c p weight 362 1 0
c p weight -362 1 0
c p weight 363 1 0
c p weight -363 1 0
c p weight 364 3.3333333333333337e-06 0
c p weight -364 0.99999000000000005 0
c p weight 365 1 0
c p weight -365 1 0
c p weight 366 1 0
c p weight -366 1 0
c p weight 367 3.3333333333333337e-06 0
c p weight -367 0.99999000000000005 0
c p weight 368 1 0
c p weight -368 1 0
c p weight 369 1 0
c p weight -369 1 0
c p weight 370 3.3333333333333337e-06 0
c p weight -370 0.99999000000000005 0
c p weight 371 1 0
c p weight -371 1 0
c p weight 372 1 0
c p weight -372 1 0
c p weight 373 3.3333333333333337e-06 0
c p weight -373 0.99999000000000005 0
c p weight 374 1 0
c p weight -374 1 0
c p weight 375 1 0
c p weight -375 1 0
c p weight 376 3.3333333333333337e-06 0
c p weight -376 0.99999000000000005 0
c p weight 377 1 0
c p weight -377 1 0
c p weight 378 1 0
c p weight -378 1 0
c p weight 379 3.3333333333333337e-06 0
c p weight -379 0.99999000000000005 0
c p weight 380 1 0
c p weight -380 1 0
c p weight 381 1 0
c p weight -381 1 0
c p weight 382 3.3333333333333337e-06 0
c p weight -382 0.99999000000000005 0
c p weight 383 1 0
c p weight -383 1 0
c p weight 384 1 0
c p weight -384 1 0
c p weight 385 6.6666666666666671e-07 0
c p weight -385 0.99999000000000005 0
c p weight 386 1 0
c p weight -386 1 0
c p weight 387 1 0
c p weight -387 1 0
c p weight 388 1 0
c p weight -388 1 0
c p weight 389 1 0
c p weight -389 1 0
c p weight 390 3.3333333333333337e-06 0
c p weight -390 0.99999000000000005 0
c p weight 391 1 0
c p weight -391 1 0
c p weight 392 1 0
c p weight -392 1 0
c p weight 393 3.3333333333333337e-06 0
c p weight -393 0.99999000000000005 0
c p weight 394 1 0
c p weight -394 1 0
c p weight 395 1 0
c p weight -395 1 0
c p weight 396 3.3333333333333337e-06 0
c p weight -396 0.99999000000000005 0
c p weight 397 1 0
c p weight -397 1 0
c p weight 398 1 0
c p weight -398 1 0
c p weight 399 3.3333333333333337e-06 0
c p weight -399 0.99999000000000005 0
c p weight 400 1 0
c p weight -400 1 0
c p weight 401 1 0
c p weight -401 1 0
c p weight 402 3.3333333333333337e-06 0
c p weight -402 0.99999000000000005 0
c p weight 403 1 0
c p weight -403 1 0
c p weight 404 1 0
c p weight -404 1 0
c p weight 405 3.3333333333333337e-06 0
c p weight -405 0.99999000000000005 0
c p weight 406 1 0
c p weight -406 1 0
c p weight 407 1 0
c p weight -407 1 0
c p weight 408 3.3333333333333337e-06 0
c p weight -408 0.99999000000000005 0
c p weight 409 1 0
c p weight -409 1 0
c p weight 410 1 0
c p weight -410 1 0
c p weight 411 3.3333333333333337e-06 0
c p weight -411 0.99999000000000005 0
c p weight 412 1 0
c p weight -412 1 0
c p weight 413 1 0
c p weight -413 1 0
c p weight 414 3.3333333333333337e-06 0
c p weight -414 0.99999000000000005 0
c p weight 415 1 0
c p weight -415 1 0
c p weight 416 1 0
c p weight -416 1 0
c p weight 417 3.3333333333333337e-06 0
c p weight -417 0.99999000000000005 0
c p weight 418 1 0
c p weight -418 1 0
c p weight 419 1 0
c p weight -419 1 0
c p weight 420 3.3333333333333337e-06 0
c p weight -420 0.99999000000000005 0
c p weight 421 1 0
c p weight -421 1 0
c p weight 422 1 0
c p weight -422 1 0
c p weight 423 3.3333333333333337e-06 0
c p weight -423 0.99999000000000005 0
c p weight 424 1 0
c p weight -424 1 0
c p weight 425 1 0
c p weight -425 1 0
c p weight 426 3.3333333333333337e-06 0
c p weight -426 0.99999000000000005 0
c p weight 427 1 0
c p weight -427 1 0
c p weight 428 1 0
c p weight -428 1 0
c p weight 429 3.3333333333333337e-06 0
c p weight -429 0.99999000000000005 0
c p weight 430 1 0
c p weight -430 1 0
c p weight 431 1 0
c p weight -431 1 0
c p weight 432 3.3333333333333337e-06 0
c p weight -432 0.99999000000000005 0
c p weight 433 1 0
c p weight -433 1 0
c p weight 434 1 0
c p weight -434 1 0
c p weight 435 3.3333333333333337e-06 0
c p weight -435 0.99999000000000005 0
c p weight 436 1 0
c p weight -436 1 0
c p weight 437 1 0
c p weight -437 1 0
c p weight 438 3.3333333333333337e-06 0
c p weight -438 0.99999000000000005 0
c p weight 439 1 0
c p weight -439 1 0
c p weight 440 1 0
c p weight -440 1 0
c p weight 441 3.3333333333333337e-06 0
c p weight -441 0.99999000000000005 0
c p weight 442 1 0
c p weight -442 1 0
c p weight 443 1 0
c p weight -443 1 0
c p weight 444 3.3333333333333337e-06 0
c p weight -444 0.99999000000000005 0
c p weight 445 1 0
c p weight -445 1 0
c p weight 446 1 0
c p weight -446 1 0
c p weight 447 6.6666666666666671e-07 0
c p weight -447 0.99999000000000005 0
c p weight 448 1 0
c p weight -448 1 0
c p weight 449 1 0
c p weight -449 1 0
c p weight 450 1 0
c p weight -450 1 0
c p weight 451 1 0
c p weight -451 1 0
c p weight 452 3.3333333333333337e-06 0
c p weight -452 0.99999000000000005 0
c p weight 453 1 0
c p weight -453 1 0
c p weight 454 1 0
c p weight -454 1 0
c p weight 455 3.3333333333333337e-06 0
c p weight -455 0.99999000000000005 0
c p weight 456 1 0
c p weight -456 1 0
c p weight 457 1 0
c p weight -457 1 0
c p weight 458 3.3333333333333337e-06 0
c p weight -458 0.99999000000000005 0
c p weight 459 1 0
c p weight -459 1 0
c p weight 460 1 0
c p weight -460 1 0
c p weight 461 3.3333333333333337e-06 0
c p weight -461 0.99999000000000005 0
c p weight 462 1 0
c p weight -462 1 0
c p weight 463 1 0
c p weight -463 1 0
c p weight 464 3.3333333333333337e-06 0
c p weight -464 0.99999000000000005 0
c p weight 465 1 0
c p weight -465 1 0
c p weight 466 1 0
c p weight -466 1 0
c p weight 467 3.3333333333333337e-06 0
c p weight -467 0.99999000000000005 0
c p weight 468 1 0
c p weight -468 1 0
c p weight 469 1 0
c p weight -469 1 0
c p weight 470 3.3333333333333337e-06 0
c p weight -470 0.99999000000000005 0
c p weight 471 1 0
c p weight -471 1 0
c p weight 472 1 0
c p weight -472 1 0
c p weight 473 3.3333333333333337e-06 0
c p weight -473 0.99999000000000005 0
c p weight 474 1 0
c p weight -474 1 0
c p weight 475 1 0
c p weight -475 1 0
c p weight 476 3.3333333333333337e-06 0
c p weight -476 0.99999000000000005 0
c p weight 477 1 0
c p weight -477 1 0
c p weight 478 1 0
c p weight -478 1 0
c p weight 479 3.3333333333333337e-06 0
c p weight -479 0.99999000000000005 0
c p weight 480 1 0
c p weight -480 1 0
c p weight 481 1 0
c p weight -481 1 0
c p weight 482 3.3333333333333337e-06 0
c p weight -482 0.99999000000000005 0
c p weight 483 1 0
c p weight -483 1 0
c p weight 484 1 0
c p weight -484 1 0
c p weight 485 3.3333333333333337e-06 0
c p weight -485 0.99999000000000005 0
c p weight 486 1 0
c p weight -486 1 0
c p weight 487 1 0
c p weight -487 1 0
c p weight 488 3.3333333333333337e-06 0
c p weight -488 0.99999000000000005 0
c p weight 489 1 0
c p weight -489 1 0
c p weight 490 1 0
c p weight -490 1 0
c p weight 491 3.3333333333333337e-06 0
c p weight -491 0.99999000000000005 0
c p weight 492 1 0
c p weight -492 1 0
c p weight 493 1 0
c p weight -493 1 0
c p weight 494 3.3333333333333337e-06 0
c p weight -494 0.99999000000000005 0
c p weight 495 1 0
c p weight -495 1 0
c p weight 496 1 0
c p weight -496 1 0
c p weight 497 3.3333333333333337e-06 0
c p weight -497 0.99999000000000005 0
c p weight 498 1 0
c p weight -498 1 0
c p weight 499 1 0
c p weight -499 1 0
c p weight 500 3.3333333333333337e-06 0
c p weight -500 0.99999000000000005 0
c p weight 501 1 0
c p weight -501 1 0
c p weight 502 1 0
c p weight -502 1 0
c p weight 503 3.3333333333333337e-06 0
c p weight -503 0.99999000000000005 0
c p weight 504 1 0
c p weight -504 1 0
c p weight 505 1 0
c p weight -505 1 0
c p weight 506 3.3333333333333337e-06 0
c p weight -506 0.99999000000000005 0
c p weight 507 1 0
c p weight -507 1 0
c p weight 508 1 0
c p weight -508 1 0
c p weight 509 6.6666666666666671e-07 0
c p weight -509 0.99999000000000005 0
c p weight 510 1 0
c p weight -510 1 0
c p weight 511 1 0
c p weight -511 1 0
c p weight 512 1 0
c p weight -512 1 0
c p weight 513 1 0
c p weight -513 1 0
c p weight 514 3.3333333333333337e-06 0
c p weight -514 0.99999000000000005 0
c p weight 515 1 0
c p weight -515 1 0
c p weight 516 1 0
c p weight -516 1 0
c p weight 517 3.3333333333333337e-06 0
c p weight -517 0.99999000000000005 0
c p weight 518 1 0
c p weight -518 1 0
c p weight 519 1 0
c p weight -519 1 0
c p weight 520 3.3333333333333337e-06 0
c p weight -520 0.99999000000000005 0
c p weight 521 1 0
c p weight -521 1 0
c p weight 522 1 0
c p weight -522 1 0
c p weight 523 3.3333333333333337e-06 0
c p weight -523 0.99999000000000005 0
c p weight 524 1 0
c p weight -524 1 0
c p weight 525 1 0
c p weight -525 1 0
c p weight 526 3.3333333333333337e-06 0
c p weight -526 0.99999000000000005 0
c p weight 527 1 0
c p weight -527 1 0
c p weight 528 1 0
c p weight -528 1 0
c p weight 529 3.3333333333333337e-06 0
c p weight -529 0.99999000000000005 0
c p weight 530 1 0
c p weight -530 1 0
c p weight 531 1 0
c p weight -531 1 0
c p weight 532 3.3333333333333337e-06 0
c p weight -532 0.99999000000000005 0
c p weight 533 1 0
c p weight -533 1 0
c p weight 534 1 0
c p weight -534 1 0
c p weight 535 3.3333333333333337e-06 0
c p weight -535 0.99999000000000005 0
c p weight 536 1 0
c p weight -536 1 0
c p weight 537 1 0
c p weight -537 1 0
c p weight 538 3.3333333333333337e-06 0
c p weight -538 0.99999000000000005 0
c p weight 539 1 0
c p weight -539 1 0
c p weight 540 1 0
c p weight -540 1 0
c p weight 541 3.3333333333333337e-06 0
c p weight -541 0.99999000000000005 0
c p weight 542 1 0
c p weight -542 1 0
c p weight 543 1 0
c p weight -543 1 0
c p weight 544 3.3333333333333337e-06 0
c p weight -544 0.99999000000000005 0
c p weight 545 1 0
c p weight -545 1 0
c p weight 546 1 0
c p weight -546 1 0
c p weight 547 3.3333333333333337e-06 0
c p weight -547 0.99999000000000005 0
c p weight 548 1 0
c p weight -548 1 0
c p weight 549 1 0
c p weight -549 1 0
c p weight 550 3.3333333333333337e-06 0
c p weight -550 0.99999000000000005 0
c p weight 551 1 0
c p weight -551 1 0
c p weight 552 1 0
c p weight -552 1 0
c p weight 553 3.3333333333333337e-06 0
c p weight -553 0.99999000000000005 0
c p weight 554 1 0
c p weight -554 1 0
c p weight 555 1 0
c p weight -555 1 0
c p weight 556 3.3333333333333337e-06 0
c p weight -556 0.99999000000000005 0
c p weight 557 1 0
c p weight -557 1 0
c p weight 558 1 0
c p weight -558 1 0
c p weight 559 3.3333333333333337e-06 0
c p weight -559 0.99999000000000005 0
c p weight 560 1 0
c p weight -560 1 0
c p weight 561 1 0
c p weight -561 1 0
c p weight 562 3.3333333333333337e-06 0
c p weight -562 0.99999000000000005 0
c p weight 563 1 0
c p weight -563 1 0
c p weight 564 1 0
c p weight -564 1 0
c p weight 565 3.3333333333333337e-06 0
c p weight -565 0.99999000000000005 0
c p weight 566 1 0
c p weight -566 1 0
c p weight 567 1 0
c p weight -567 1 0
c p weight 568 3.3333333333333337e-06 0
c p weight -568 0.99999000000000005 0
c p weight 569 1 0
c p weight -569 1 0
c p weight 570 1 0
c p weight -570 1 0
c p weight 571 6.6666666666666671e-07 0
c p weight -571 0.99999000000000005 0
c p weight 572 1 0
c p weight -572 1 0
c p weight 573 1 0
c p weight -573 1 0
c p weight 574 1 0
c p weight -574 1 0
c p weight 575 1 0
c p weight -575 1 0
c p weight 576 3.3333333333333337e-06 0
c p weight -576 0.99999000000000005 0
c p weight 577 1 0
c p weight -577 1 0
c p weight 578 1 0
c p weight -578 1 0
c p weight 579 3.3333333333333337e-06 0
c p weight -579 0.99999000000000005 0
c p weight 580 1 0
c p weight -580 1 0
c p weight 581 1 0
c p weight -581 1 0
c p weight 582 3.3333333333333337e-06 0
c p weight -582 0.99999000000000005 0
c p weight 583 1 0
c p weight -583 1 0
c p weight 584 1 0
c p weight -584 1 0
c p weight 585 3.3333333333333337e-06 0
c p weight -585 0.99999000000000005 0
c p weight 586 1 0
c p weight -586 1 0
c p weight 587 1 0
c p weight -587 1 0
c p weight 588 3.3333333333333337e-06 0
c p weight -588 0.99999000000000005 0
c p weight 589 1 0
c p weight -589 1 0
c p weight 590 1 0
c p weight -590 1 0
c p weight 591 3.3333333333333337e-06 0
c p weight -591 0.99999000000000005 0
c p weight 592 1 0
c p weight -592 1 0
c p weight 593 1 0
c p weight -593 1 0
c p weight 594 3.3333333333333337e-06 0
c p weight -594 0.99999000000000005 0
c p weight 595 1 0
c p weight -595 1 0
c p weight 596 1 0
c p weight -596 1 0
c p weight 597 3.3333333333333337e-06 0
c p weight -597 0.99999000000000005 0
c p weight 598 1 0
c p weight -598 1 0
c p weight 599 1 0
c p weight -599 1 0
c p weight 600 3.3333333333333337e-06 0
c p weight -600 0.99999000000000005 0
c p weight 601 1 0
c p weight -601 1 0
c p weight 602 1 0
c p weight -602 1 0
c p weight 603 3.3333333333333337e-06 0
c p weight -603 0.99999000000000005 0
c p weight 604 1 0
c p weight -604 1 0
c p weight 605 1 0
c p weight -605 1 0
c p weight 606 3.3333333333333337e-06 0
c p weight -606 0.99999000000000005 0
c p weight 607 1 0
c p weight -607 1 0
c p weight 608 1 0
c p weight -608 1 0
c p weight 609 3.3333333333333337e-06 0
c p weight -609 0.99999000000000005 0
c p weight 610 1 0
c p weight -610 1 0
c p weight 611 1 0
c p weight -611 1 0
c p weight 612 3.3333333333333337e-06 0
c p weight -612 0.99999000000000005 0
c p weight 613 1 0
c p weight -613 1 0
c p weight 614 1 0
c p weight -614 1 0
c p weight 615 3.3333333333333337e-06 0
c p weight -615 0.99999000000000005 0
c p weight 616 1 0
c p weight -616 1 0
c p weight 617 1 0
c p weight -617 1 0
c p weight 618 3.3333333333333337e-06 0
c p weight -618 0.99999000000000005 0
c p weight 619 1 0
c p weight -619 1 0
c p weight 620 1 0
c p weight -620 1 0
c p weight 621 3.3333333333333337e-06 0
c p weight -621 0.99999000000000005 0
c p weight 622 1 0
c p weight -622 1 0
c p weight 623 1 0
c p weight -623 1 0
c p weight 624 3.3333333333333337e-06 0
c p weight -624 0.99999000000000005 0
c p weight 625 1 0
c p weight -625 1 0
c p weight 626 1 0
c p weight -626 1 0
c p weight 627 3.3333333333333337e-06 0
c p weight -627 0.99999000000000005 0
c p weight 628 1 0
c p weight -628 1 0
c p weight 629 1 0
c p weight -629 1 0
c p weight 630 3.3333333333333337e-06 0
c p weight -630 0.99999000000000005 0
c p weight 631 1 0
c p weight -631 1 0
c p weight 632 1 0
c p weight -632 1 0
c p weight 633 6.6666666666666671e-07 0
c p weight -633 0.99999000000000005 0
c p weight 634 1 0
c p weight -634 1 0
c p weight 635 1 0
c p weight -635 1 0
c p weight 636 1 0
c p weight -636 1 0
c p weight 637 1 0
c p weight -637 1 0
c p weight 638 3.3333333333333337e-06 0
c p weight -638 0.99999000000000005 0
c p weight 639 1 0
c p weight -639 1 0
c p weight 640 1 0
c p weight -640 1 0
c p weight 641 3.3333333333333337e-06 0
c p weight -641 0.99999000000000005 0
c p weight 642 1 0
c p weight -642 1 0
c p weight 643 1 0
c p weight -643 1 0
c p weight 644 3.3333333333333337e-06 0
c p weight -644 0.99999000000000005 0
c p weight 645 1 0
c p weight -645 1 0
c p weight 646 1 0
c p weight -646 1 0
c p weight 647 3.3333333333333337e-06 0
c p weight -647 0.99999000000000005 0
c p weight 648 1 0
c p weight -648 1 0
c p weight 649 1 0
c p weight -649 1 0
c p weight 650 3.3333333333333337e-06 0
c p weight -650 0.99999000000000005 0
c p weight 651 1 0
c p weight -651 1 0
c p weight 652 1 0
c p weight -652 1 0
c p weight 653 3.3333333333333337e-06 0
c p weight -653 0.99999000000000005 0
c p weight 654 1 0
c p weight -654 1 0
c p weight 655 1 0
c p weight -655 1 0
c p weight 656 3.3333333333333337e-06 0
c p weight -656 0.99999000000000005 0
c p weight 657 1 0
c p weight -657 1 0
c p weight 658 1 0
c p weight -658 1 0
c p weight 659 3.3333333333333337e-06 0
c p weight -659 0.99999000000000005 0
c p weight 660 1 0
c p weight -660 1 0
c p weight 661 1 0
c p weight -661 1 0
c p weight 662 3.3333333333333337e-06 0
c p weight -662 0.99999000000000005 0
c p weight 663 1 0
c p weight -663 1 0
c p weight 664 1 0
c p weight -664 1 0
c p weight 665 3.3333333333333337e-06 0
c p weight -665 0.99999000000000005 0
c p weight 666 1 0
c p weight -666 1 0
c p weight 667 1 0
c p weight -667 1 0
c p weight 668 3.3333333333333337e-06 0
c p weight -668 0.99999000000000005 0
c p weight 669 1 0
c p weight -669 1 0
c p weight 670 1 0
c p weight -670 1 0
c p weight 671 3.3333333333333337e-06 0
c p weight -671 0.99999000000000005 0
c p weight 672 1 0
c p weight -672 1 0
c p weight 673 1 0
c p weight -673 1 0
c p weight 674 3.3333333333333337e-06 0
c p weight -674 0.99999000000000005 0
c p weight 675 1 0
c p weight -675 1 0
c p weight 676 1 0
c p weight -676 1 0
c p weight 677 3.3333333333333337e-06 0
c p weight -677 0.99999000000000005 0
c p weight 678 1 0
c p weight -678 1 0
c p weight 679 1 0
c p weight -679 1 0
c p weight 680 3.3333333333333337e-06 0
c p weight -680 0.99999000000000005 0
c p weight 681 1 0
c p weight -681 1 0
c p weight 682 1 0
c p weight -682 1 0
c p weight 683 3.3333333333333337e-06 0
c p weight -683 0.99999000000000005 0
c p weight 684 1 0
c p weight -684 1 0
c p weight 685 1 0
c p weight -685 1 0
c p weight 686 3.3333333333333337e-06 0
c p weight -686 0.99999000000000005 0
c p weight 687 1 0
c p weight -687 1 0
c p weight 688 1 0
c p weight -688 1 0
c p weight 689 3.3333333333333337e-06 0
c p weight -689 0.99999000000000005 0
c p weight 690 1 0
c p weight -690 1 0
c p weight 691 1 0
c p weight -691 1 0
c p weight 692 3.3333333333333337e-06 0
c p weight -692 0.99999000000000005 0
c p weight 693 1 0
c p weight -693 1 0
c p weight 694 1 0
c p weight -694 1 0
c p weight 695 6.6666666666666671e-07 0
c p weight -695 0.99999000000000005 0
c p weight 696 1 0
c p weight -696 1 0
c p weight 697 1 0
c p weight -697 1 0
c p weight 698 1 0
c p weight -698 1 0
c p weight 699 1 0
c p weight -699 1 0
c p weight 700 3.3333333333333337e-06 0
c p weight -700 0.99999000000000005 0
c p weight 701 1 0
c p weight -701 1 0
c p weight 702 1 0
c p weight -702 1 0
c p weight 703 3.3333333333333337e-06 0
c p weight -703 0.99999000000000005 0
c p weight 704 1 0
c p weight -704 1 0
c p weight 705 1 0
c p weight -705 1 0
c p weight 706 3.3333333333333337e-06 0
c p weight -706 0.99999000000000005 0
c p weight 707 1 0
c p weight -707 1 0
c p weight 708 1 0
c p weight -708 1 0
c p weight 709 3.3333333333333337e-06 0
c p weight -709 0.99999000000000005 0
c p weight 710 1 0
c p weight -710 1 0
c p weight 711 1 0
c p weight -711 1 0
c p weight 712 3.3333333333333337e-06 0
c p weight -712 0.99999000000000005 0
c p weight 713 1 0
c p weight -713 1 0
c p weight 714 1 0
c p weight -714 1 0
c p weight 715 3.3333333333333337e-06 0
c p weight -715 0.99999000000000005 0
c p weight 716 1 0
c p weight -716 1 0
c p weight 717 1 0
c p weight -717 1 0
c p weight 718 3.3333333333333337e-06 0
c p weight -718 0.99999000000000005 0
c p weight 719 1 0
c p weight -719 1 0
c p weight 720 1 0
c p weight -720 1 0
c p weight 721 3.3333333333333337e-06 0
c p weight -721 0.99999000000000005 0
c p weight 722 1 0
c p weight -722 1 0
c p weight 723 1 0
c p weight -723 1 0
c p weight 724 3.3333333333333337e-06 0
c p weight -724 0.99999000000000005 0
c p weight 725 1 0
c p weight -725 1 0
c p weight 726 1 0
c p weight -726 1 0
c p weight 727 3.3333333333333337e-06 0
c p weight -727 0.99999000000000005 0
c p weight 728 1 0
c p weight -728 1 0
c p weight 729 1 0
c p weight -729 1 0
c p weight 730 3.3333333333333337e-06 0
c p weight -730 0.99999000000000005 0
c p weight 731 1 0
c p weight -731 1 0
c p weight 732 1 0
c p weight -732 1 0
c p weight 733 3.3333333333333337e-06 0
c p weight -733 0.99999000000000005 0
c p weight 734 1 0
c p weight -734 1 0
c p weight 735 1 0
c p weight -735 1 0
c p weight 736 3.3333333333333337e-06 0
c p weight -736 0.99999000000000005 0
c p weight 737 1 0
c p weight -737 1 0
c p weight 738 1 0
c p weight -738 1 0
c p weight 739 3.3333333333333337e-06 0
c p weight -739 0.99999000000000005 0
c p weight 740 1 0
c p weight -740 1 0
c p weight 741 1 0
c p weight -741 1 0
c p weight 742 3.3333333333333337e-06 0
c p weight -742 0.99999000000000005 0
c p weight 743 1 0
c p weight -743 1 0
c p weight 744 1 0
c p weight -744 1 0
c p weight 745 3.3333333333333337e-06 0
c p weight -745 0.99999000000000005 0
c p weight 746 1 0
c p weight -746 1 0
c p weight 747 1 0
c p weight -747 1 0
c p weight 748 3.3333333333333337e-06 0
c p weight -748 0.99999000000000005 0
c p weight 749 1 0
c p weight -749 1 0
c p weight 750 1 0
c p weight -750 1 0
c p weight 751 3.3333333333333337e-06 0
c p weight -751 0.99999000000000005 0
c p weight 752 1 0
c p weight -752 1 0
c p weight 753 1 0
c p weight -753 1 0
c p weight 754 3.3333333333333337e-06 0
c p weight -754 0.99999000000000005 0
c p weight 755 1 0
c p weight -755 1 0
c p weight 756 1 0
c p weight -756 1 0
c p weight 757 6.6666666666666671e-07 0
c p weight -757 0.99999000000000005 0
c p weight 758 1 0
c p weight -758 1 0
c p weight 759 1 0
c p weight -759 1 0
c p weight 760 1 0
c p weight -760 1 0
c p weight 761 1 0
c p weight -761 1 0
c p weight 762 3.3333333333333337e-06 0
c p weight -762 0.99999000000000005 0
c p weight 763 1 0
c p weight -763 1 0
c p weight 764 1 0
c p weight -764 1 0
c p weight 765 3.3333333333333337e-06 0
c p weight -765 0.99999000000000005 0
c p weight 766 1 0
c p weight -766 1 0
c p weight 767 1 0
c p weight -767 1 0
c p weight 768 3.3333333333333337e-06 0
c p weight -768 0.99999000000000005 0
c p weight 769 1 0
c p weight -769 1 0
c p weight 770 1 0
c p weight -770 1 0
c p weight 771 3.3333333333333337e-06 0
c p weight -771 0.99999000000000005 0
c p weight 772 1 0
c p weight -772 1 0
c p weight 773 1 0
c p weight -773 1 0
c p weight 774 3.3333333333333337e-06 0
c p weight -774 0.99999000000000005 0
c p weight 775 1 0
c p weight -775 1 0
c p weight 776 1 0
c p weight -776 1 0
c p weight 777 3.3333333333333337e-06 0
c p weight -777 0.99999000000000005 0
c p weight 778 1 0
c p weight -778 1 0
c p weight 779 1 0
c p weight -779 1 0
c p weight 780 3.3333333333333337e-06 0
c p weight -780 0.99999000000000005 0
c p weight 781 1 0
c p weight -781 1 0
c p weight 782 1 0
c p weight -782 1 0
c p weight 783 3.3333333333333337e-06 0
c p weight -783 0.99999000000000005 0
c p weight 784 1 0
c p weight -784 1 0
c p weight 785 1 0
c p weight -785 1 0
c p weight 786 3.3333333333333337e-06 0
c p weight -786 0.99999000000000005 0
c p weight 787 1 0
c p weight -787 1 0
c p weight 788 1 0
c p weight -788 1 0
c p weight 789 3.3333333333333337e-06 0
c p weight -789 0.99999000000000005 0
c p weight 790 1 0
c p weight -790 1 0
c p weight 791 1 0
c p weight -791 1 0
c p weight 792 3.3333333333333337e-06 0
c p weight -792 0.99999000000000005 0
c p weight 793 1 0
c p weight -793 1 0
c p weight 794 1 0
c p weight -794 1 0
c p weight 795 3.3333333333333337e-06 0
c p weight -795 0.99999000000000005 0
c p weight 796 1 0
c p weight -796 1 0
c p weight 797 1 0
c p weight -797 1 0
c p weight 798 3.3333333333333337e-06 0
c p weight -798 0.99999000000000005 0
c p weight 799 1 0
c p weight -799 1 0
c p weight 800 1 0
c p weight -800 1 0
c p weight 801 3.3333333333333337e-06 0
c p weight -801 0.99999000000000005 0
c p weight 802 1 0
c p weight -802 1 0
c p weight 803 1 0
c p weight -803 1 0
c p weight 804 3.3333333333333337e-06 0
c p weight -804 0.99999000000000005 0
c p weight 805 1 0
c p weight -805 1 0
c p weight 806 1 0
c p weight -806 1 0
c p weight 807 3.3333333333333337e-06 0
c p weight -807 0.99999000000000005 0
c p weight 808 1 0
c p weight -808 1 0
c p weight 809 1 0
c p weight -809 1 0
c p weight 810 3.3333333333333337e-06 0
c p weight -810 0.99999000000000005 0
c p weight 811 1 0
c p weight -811 1 0
c p weight 812 1 0
c p weight -812 1 0
c p weight 813 3.3333333333333337e-06 0
c p weight -813 0.99999000000000005 0
c p weight 814 1 0
c p weight -814 1 0
c p weight 815 1 0
c p weight -815 1 0
c p weight 816 3.3333333333333337e-06 0
c p weight -816 0.99999000000000005 0
c p weight 817 1 0
c p weight -817 1 0
c p weight 818 1 0
c p weight -818 1 0
c p weight 819 6.6666666666666671e-07 0
c p weight -819 0.99999000000000005 0
c p weight 820 1 0
c p weight -820 1 0
c p weight 821 1 0
c p weight -821 1 0
c p weight 822 1 0
c p weight -822 1 0
c p weight 823 1 0
c p weight -823 1 0
c p weight 824 3.3333333333333337e-06 0
c p weight -824 0.99999000000000005 0
c p weight 825 1 0
c p weight -825 1 0
c p weight 826 1 0
c p weight -826 1 0
c p weight 827 3.3333333333333337e-06 0
c p weight -827 0.99999000000000005 0
c p weight 828 1 0
c p weight -828 1 0
c p weight 829 1 0
c p weight -829 1 0
c p weight 830 3.3333333333333337e-06 0
c p weight -830 0.99999000000000005 0
c p weight 831 1 0
c p weight -831 1 0
c p weight 832 1 0
c p weight -832 1 0
c p weight 833 3.3333333333333337e-06 0
c p weight -833 0.99999000000000005 0
c p weight 834 1 0
c p weight -834 1 0
c p weight 835 1 0
c p weight -835 1 0
c p weight 836 3.3333333333333337e-06 0
c p weight -836 0.99999000000000005 0
c p weight 837 1 0
c p weight -837 1 0
c p weight 838 1 0
c p weight -838 1 0
c p weight 839 3.3333333333333337e-06 0
c p weight -839 0.99999000000000005 0
c p weight 840 1 0
c p weight -840 1 0
c p weight 841 1 0
c p weight -841 1 0
c p weight 842 3.3333333333333337e-06 0
c p weight -842 0.99999000000000005 0
c p weight 843 1 0
c p weight -843 1 0
c p weight 844 1 0
c p weight -844 1 0
c p weight 845 3.3333333333333337e-06 0
c p weight -845 0.99999000000000005 0
c p weight 846 1 0
c p weight -846 1 0
c p weight 847 1 0
c p weight -847 1 0
c p weight 848 3.3333333333333337e-06 0
c p weight -848 0.99999000000000005 0
c p weight 849 1 0
c p weight -849 1 0
c p weight 850 1 0
c p weight -850 1 0
c p weight 851 3.3333333333333337e-06 0
c p weight -851 0.99999000000000005 0
c p weight 852 1 0
c p weight -852 1 0
c p weight 853 1 0
c p weight -853 1 0
c p weight 854 3.3333333333333337e-06 0
c p weight -854 0.99999000000000005 0
c p weight 855 1 0
c p weight -855 1 0
c p weight 856 1 0
c p weight -856 1 0
c p weight 857 3.3333333333333337e-06 0
c p weight -857 0.99999000000000005 0
c p weight 858 1 0
c p weight -858 1 0
c p weight 859 1 0
c p weight -859 1 0
c p weight 860 3.3333333333333337e-06 0
c p weight -860 0.99999000000000005 0
c p weight 861 1 0
c p weight -861 1 0
c p weight 862 1 0
c p weight -862 1 0
c p weight 863 3.3333333333333337e-06 0
c p weight -863 0.99999000000000005 0
c p weight 864 1 0
c p weight -864 1 0
c p weight 865 1 0
c p weight -865 1 0
c p weight 866 3.3333333333333337e-06 0
c p weight -866 0.99999000000000005 0
c p weight 867 1 0
c p weight -867 1 0
c p weight 868 1 0
c p weight -868 1 0
c p weight 869 3.3333333333333337e-06 0
c p weight -869 0.99999000000000005 0
c p weight 870 1 0
c p weight -870 1 0
c p weight 871 1 0
c p weight -871 1 0
c p weight 872 3.3333333333333337e-06 0
c p weight -872 0.99999000000000005 0
c p weight 873 1 0
c p weight -873 1 0
c p weight 874 1 0
c p weight -874 1 0
c p weight 875 3.3333333333333337e-06 0
c p weight -875 0.99999000000000005 0
c p weight 876 1 0
c p weight -876 1 0
c p weight 877 1 0
c p weight -877 1 0
c p weight 878 3.3333333333333337e-06 0
c p weight -878 0.99999000000000005 0
c p weight 879 1 0
c p weight -879 1 0
c p weight 880 1 0
c p weight -880 1 0
c p weight 881 6.6666666666666671e-07 0
c p weight -881 0.99999000000000005 0
c p weight 882 1 0
c p weight -882 1 0
c p weight 883 1 0
c p weight -883 1 0
c p weight 884 1 0
c p weight -884 1 0
c p weight 885 1 0
c p weight -885 1 0
c p weight 886 3.3333333333333337e-06 0
c p weight -886 0.99999000000000005 0
c p weight 887 1 0
c p weight -887 1 0
c p weight 888 1 0
c p weight -888 1 0
c p weight 889 3.3333333333333337e-06 0
c p weight -889 0.99999000000000005 0
c p weight 890 1 0
c p weight -890 1 0
c p weight 891 1 0
c p weight -891 1 0
c p weight 892 3.3333333333333337e-06 0
c p weight -892 0.99999000000000005 0
c p weight 893 1 0
c p weight -893 1 0
c p weight 894 1 0
c p weight -894 1 0
c p weight 895 3.3333333333333337e-06 0
c p weight -895 0.99999000000000005 0
c p weight 896 1 0
c p weight -896 1 0
c p weight 897 1 0
c p weight -897 1 0
c p weight 898 3.3333333333333337e-06 0
c p weight -898 0.99999000000000005 0
c p weight 899 1 0
c p weight -899 1 0
c p weight 900 1 0
c p weight -900 1 0
c p weight 901 3.3333333333333337e-06 0
c p weight -901 0.99999000000000005 0
c p weight 902 1 0
c p weight -902 1 0
c p weight 903 1 0
c p weight -903 1 0
c p weight 904 3.3333333333333337e-06 0
c p weight -904 0.99999000000000005 0
c p weight 905 1 0
c p weight -905 1 0
c p weight 906 1 0
c p weight -906 1 0
c p weight 907 3.3333333333333337e-06 0
c p weight -907 0.99999000000000005 0
c p weight 908 1 0
c p weight -908 1 0
c p weight 909 1 0
c p weight -909 1 0
c p weight 910 3.3333333333333337e-06 0
c p weight -910 0.99999000000000005 0
c p weight 911 1 0
c p weight -911 1 0
c p weight 912 1 0
c p weight -912 1 0
c p weight 913 3.3333333333333337e-06 0
c p weight -913 0.99999000000000005 0
c p weight 914 1 0
c p weight -914 1 0
c p weight 915 1 0
c p weight -915 1 0
c p weight 916 3.3333333333333337e-06 0
c p weight -916 0.99999000000000005 0
c p weight 917 1 0
c p weight -917 1 0
c p weight 918 1 0
c p weight -918 1 0
c p weight 919 3.3333333333333337e-06 0
c p weight -919 0.99999000000000005 0
c p weight 920 1 0
c p weight -920 1 0
c p weight 921 1 0
c p weight -921 1 0
c p weight 922 3.3333333333333337e-06 0
c p weight -922 0.99999000000000005 0
c p weight 923 1 0
c p weight -923 1 0
c p weight 924 1 0
c p weight -924 1 0
c p weight 925 3.3333333333333337e-06 0
c p weight -925 0.99999000000000005 0
c p weight 926 1 0
c p weight -926 1 0
c p weight 927 1 0
c p weight -927 1 0
c p weight 928 3.3333333333333337e-06 0
c p weight -928 0.99999000000000005 0
c p weight 929 1 0
c p weight -929 1 0
c p weight 930 1 0
c p weight -930 1 0
c p weight 931 3.3333333333333337e-06 0
c p weight -931 0.99999000000000005 0
c p weight 932 1 0
c p weight -932 1 0
c p weight 933 1 0
c p weight -933 1 0
c p weight 934 3.3333333333333337e-06 0
c p weight -934 0.99999000000000005 0
c p weight 935 1 0
c p weight -935 1 0
c p weight 936 1 0
c p weight -936 1 0
c p weight 937 3.3333333333333337e-06 0
c p weight -937 0.99999000000000005 0
c p weight 938 1 0
c p weight -938 1 0
c p weight 939 1 0
c p weight -939 1 0
c p weight 940 3.3333333333333337e-06 0
c p weight -940 0.99999000000000005 0
c p weight 941 1 0
c p weight -941 1 0
c p weight 942 1 0
c p weight -942 1 0
c p weight 943 6.6666666666666671e-07 0
c p weight -943 0.99999000000000005 0
c p weight 944 1 0
c p weight -944 1 0
c p weight 945 1 0
c p weight -945 1 0
c p weight 946 1 0
c p weight -946 1 0
c p weight 947 1 0
c p weight -947 1 0
c p weight 948 3.3333333333333337e-06 0
c p weight -948 0.99999000000000005 0
c p weight 949 1 0
c p weight -949 1 0
c p weight 950 1 0
c p weight -950 1 0
c p weight 951 3.3333333333333337e-06 0
c p weight -951 0.99999000000000005 0
c p weight 952 1 0
c p weight -952 1 0
c p weight 953 1 0
c p weight -953 1 0
c p weight 954 3.3333333333333337e-06 0
c p weight -954 0.99999000000000005 0
c p weight 955 1 0
c p weight -955 1 0
c p weight 956 1 0
c p weight -956 1 0
c p weight 957 3.3333333333333337e-06 0
c p weight -957 0.99999000000000005 0
c p weight 958 1 0
c p weight -958 1 0
c p weight 959 1 0
c p weight -959 1 0
c p weight 960 3.3333333333333337e-06 0
c p weight -960 0.99999000000000005 0
c p weight 961 1 0
c p weight -961 1 0
c p weight 962 1 0
c p weight -962 1 0
c p weight 963 3.3333333333333337e-06 0
c p weight -963 0.99999000000000005 0
c p weight 964 1 0
c p weight -964 1 0
c p weight 965 1 0
c p weight -965 1 0
c p weight 966 3.3333333333333337e-06 0
c p weight -966 0.99999000000000005 0
c p weight 967 1 0
c p weight -967 1 0
c p weight 968 1 0
c p weight -968 1 0
c p weight 969 3.3333333333333337e-06 0
c p weight -969 0.99999000000000005 0
c p weight 970 1 0
c p weight -970 1 0
c p weight 971 1 0
c p weight -971 1 0
c p weight 972 3.3333333333333337e-06 0
c p weight -972 0.99999000000000005 0
c p weight 973 1 0
c p weight -973 1 0
c p weight 974 1 0
c p weight -974 1 0
c p weight 975 3.3333333333333337e-06 0
c p weight -975 0.99999000000000005 0
c p weight 976 1 0
c p weight -976 1 0
c p weight 977 1 0
c p weight -977 1 0
c p weight 978 3.3333333333333337e-06 0
c p weight -978 0.99999000000000005 0
c p weight 979 1 0
c p weight -979 1 0
c p weight 980 1 0
c p weight -980 1 0
c p weight 981 3.3333333333333337e-06 0
c p weight -981 0.99999000000000005 0
c p weight 982 1 0
c p weight -982 1 0
c p weight 983 1 0
c p weight -983 1 0
c p weight 984 3.3333333333333337e-06 0
c p weight -984 0.99999000000000005 0
c p weight 985 1 0
c p weight -985 1 0
c p weight 986 1 0
c p weight -986 1 0
c p weight 987 3.3333333333333337e-06 0
c p weight -987 0.99999000000000005 0
c p weight 988 1 0
c p weight -988 1 0
c p weight 989 1 0
c p weight -989 1 0
c p weight 990 3.3333333333333337e-06 0
c p weight -990 0.99999000000000005 0
c p weight 991 1 0
c p weight -991 1 0
c p weight 992 1 0
c p weight -992 1 0
c p weight 993 3.3333333333333337e-06 0
c p weight -993 0.99999000000000005 0
c p weight 994 1 0
c p weight -994 1 0
c p weight 995 1 0
c p weight -995 1 0
c p weight 996 3.3333333333333337e-06 0
c p weight -996 0.99999000000000005 0
c p weight 997 1 0
c p weight -997 1 0
c p weight 998 1 0
c p weight -998 1 0
c p weight 999 3.3333333333333337e-06 0
c p weight -999 0.99999000000000005 0
c p weight 1000 1 0
c p weight -1000 1 0
c p weight 1001 1 0
c p weight -1001 1 0
c p weight 1002 3.3333333333333337e-06 0
c p weight -1002 0.99999000000000005 0
c p weight 1003 1 0
c p weight -1003 1 0
c p weight 1004 1 0
c p weight -1004 1 0
c p weight 1005 6.6666666666666671e-07 0
c p weight -1005 0.99999000000000005 0
c p weight 1006 1 0
c p weight -1006 1 0
c p weight 1007 1 0
c p weight -1007 1 0
c p weight 1008 1 0
c p weight -1008 1 0
c p weight 1009 1 0
c p weight -1009 1 0
c p weight 1010 3.3333333333333337e-06 0
c p weight -1010 0.99999000000000005 0
c p weight 1011 1 0
c p weight -1011 1 0
c p weight 1012 1 0
c p weight -1012 1 0
c p weight 1013 3.3333333333333337e-06 0
c p weight -1013 0.99999000000000005 0
c p weight 1014 1 0
c p weight -1014 1 0
c p weight 1015 1 0
c p weight -1015 1 0
c p weight 1016 3.3333333333333337e-06 0
c p weight -1016 0.99999000000000005 0
c p weight 1017 1 0
c p weight -1017 1 0
c p weight 1018 1 0
c p weight -1018 1 0
c p weight 1019 3.3333333333333337e-06 0
c p weight -1019 0.99999000000000005 0
c p weight 1020 1 0
c p weight -1020 1 0
c p weight 1021 1 0
c p weight -1021 1 0
c p weight 1022 3.3333333333333337e-06 0
c p weight -1022 0.99999000000000005 0
c p weight 1023 1 0
c p weight -1023 1 0
c p weight 1024 1 0
c p weight -1024 1 0
c p weight 1025 3.3333333333333337e-06 0
c p weight -1025 0.99999000000000005 0
c p weight 1026 1 0
c p weight -1026 1 0
c p weight 1027 1 0
c p weight -1027 1 0
c p weight 1028 3.3333333333333337e-06 0
c p weight -1028 0.99999000000000005 0
c p weight 1029 1 0
c p weight -1029 1 0
c p weight 1030 1 0
c p weight -1030 1 0
c p weight 1031 3.3333333333333337e-06 0
c p weight -1031 0.99999000000000005 0
c p weight 1032 1 0
c p weight -1032 1 0
c p weight 1033 1 0
c p weight -1033 1 0
c p weight 1034 3.3333333333333337e-06 0
c p weight -1034 0.99999000000000005 0
c p weight 1035 1 0
c p weight -1035 1 0
c p weight 1036 1 0
c p weight -1036 1 0
c p weight 1037 3.3333333333333337e-06 0
c p weight -1037 0.99999000000000005 0
c p weight 1038 1 0
c p weight -1038 1 0
c p weight 1039 1 0
c p weight -1039 1 0
c p weight 1040 3.3333333333333337e-06 0
c p weight -1040 0.99999000000000005 0
c p weight 1041 1 0
c p weight -1041 1 0
c p weight 1042 1 0
c p weight -1042 1 0
c p weight 1043 3.3333333333333337e-06 0
c p weight -1043 0.99999000000000005 0
c p weight 1044 1 0
c p weight -1044 1 0
c p weight 1045 1 0
c p weight -1045 1 0
c p weight 1046 3.3333333333333337e-06 0
c p weight -1046 0.99999000000000005 0
c p weight 1047 1 0
c p weight -1047 1 0
c p weight 1048 1 0
c p weight -1048 1 0
c p weight 1049 3.3333333333333337e-06 0
c p weight -1049 0.99999000000000005 0
c p weight 1050 1 0
c p weight -1050 1 0
c p weight 1051 1 0
c p weight -1051 1 0
c p weight 1052 3.3333333333333337e-06 0
c p weight -1052 0.99999000000000005 0
c p weight 1053 1 0
c p weight -1053 1 0
c p weight 1054 1 0
c p weight -1054 1 0
c p weight 1055 3.3333333333333337e-06 0
c p weight -1055 0.99999000000000005 0
c p weight 1056 1 0
c p weight -1056 1 0
c p weight 1057 1 0
c p weight -1057 1 0
c p weight 1058 3.3333333333333337e-06 0
c p weight -1058 0.99999000000000005 0
c p weight 1059 1 0
c p weight -1059 1 0
c p weight 1060 1 0
c p weight -1060 1 0
c p weight 1061 3.3333333333333337e-06 0
c p weight -1061 0.99999000000000005 0
c p weight 1062 1 0
c p weight -1062 1 0
c p weight 1063 1 0
c p weight -1063 1 0
c p weight 1064 3.3333333333333337e-06 0
c p weight -1064 0.99999000000000005 0
c p weight 1065 1 0
c p weight -1065 1 0
c p weight 1066 1 0
c p weight -1066 1 0
c p weight 1067 6.6666666666666671e-07 0
c p weight -1067 0.99999000000000005 0
c p weight 1068 1 0
c p weight -1068 1 0
c p weight 1069 1 0
c p weight -1069 1 0
c p weight 1070 1 0
c p weight -1070 1 0
c p weight 1071 1 0
c p weight -1071 1 0
c p weight 1072 3.3333333333333337e-06 0
c p weight -1072 0.99999000000000005 0
c p weight 1073 1 0
c p weight -1073 1 0
c p weight 1074 1 0
c p weight -1074 1 0
c p weight 1075 3.3333333333333337e-06 0
c p weight -1075 0.99999000000000005 0
c p weight 1076 1 0
c p weight -1076 1 0
c p weight 1077 1 0
c p weight -1077 1 0
c p weight 1078 3.3333333333333337e-06 0
c p weight -1078 0.99999000000000005 0
c p weight 1079 1 0
c p weight -1079 1 0
c p weight 1080 1 0
c p weight -1080 1 0
c p weight 1081 3.3333333333333337e-06 0
c p weight -1081 0.99999000000000005 0
c p weight 1082 1 0
c p weight -1082 1 0
c p weight 1083 1 0
c p weight -1083 1 0
c p weight 1084 3.3333333333333337e-06 0
c p weight -1084 0.99999000000000005 0
c p weight 1085 1 0
c p weight -1085 1 0
c p weight 1086 1 0
c p weight -1086 1 0
c p weight 1087 3.3333333333333337e-06 0
c p weight -1087 0.99999000000000005 0
c p weight 1088 1 0
c p weight -1088 1 0
c p weight 1089 1 0
c p weight -1089 1 0
c p weight 1090 3.3333333333333337e-06 0
c p weight -1090 0.99999000000000005 0
c p weight 1091 1 0
c p weight -1091 1 0
c p weight 1092 1 0
c p weight -1092 1 0
c p weight 1093 3.3333333333333337e-06 0
c p weight -1093 0.99999000000000005 0
c p weight 1094 1 0
c p weight -1094 1 0
c p weight 1095 1 0
c p weight -1095 1 0
c p weight 1096 3.3333333333333337e-06 0
c p weight -1096 0.99999000000000005 0
c p weight 1097 1 0
c p weight -1097 1 0
c p weight 1098 1 0
c p weight -1098 1 0
c p weight 1099 3.3333333333333337e-06 0
c p weight -1099 0.99999000000000005 0
c p weight 1100 1 0
c p weight -1100 1 0
c p weight 1101 1 0
c p weight -1101 1 0
c p weight 1102 3.3333333333333337e-06 0
c p weight -1102 0.99999000000000005 0
c p weight 1103 1 0
c p weight -1103 1 0
c p weight 1104 1 0
c p weight -1104 1 0
c p weight 1105 3.3333333333333337e-06 0
c p weight -1105 0.99999000000000005 0
c p weight 1106 1 0
c p weight -1106 1 0
c p weight 1107 1 0
c p weight -1107 1 0
c p weight 1108 3.3333333333333337e-06 0
c p weight -1108 0.99999000000000005 0
c p weight 1109 1 0
c p weight -1109 1 0
c p weight 1110 1 0
c p weight -1110 1 0
c p weight 1111 3.3333333333333337e-06 0
c p weight -1111 0.99999000000000005 0
c p weight 1112 1 0
c p weight -1112 1 0
c p weight 1113 1 0
c p weight -1113 1 0
c p weight 1114 3.3333333333333337e-06 0
c p weight -1114 0.99999000000000005 0
c p weight 1115 1 0
c p weight -1115 1 0
c p weight 1116 1 0
c p weight -1116 1 0
c p weight 1117 3.3333333333333337e-06 0
c p weight -1117 0.99999000000000005 0
c p weight 1118 1 0
c p weight -1118 1 0
c p weight 1119 1 0
c p weight -1119 1 0
c p weight 1120 3.3333333333333337e-06 0
c p weight -1120 0.99999000000000005 0
c p weight 1121 1 0
c p weight -1121 1 0
c p weight 1122 1 0
c p weight -1122 1 0
c p weight 1123 3.3333333333333337e-06 0
c p weight -1123 0.99999000000000005 0
c p weight 1124 1 0
c p weight -1124 1 0
c p weight 1125 1 0
c p weight -1125 1 0
c p weight 1126 3.3333333333333337e-06 0
c p weight -1126 0.99999000000000005 0
c p weight 1127 1 0
c p weight -1127 1 0
c p weight 1128 1 0
c p weight -1128 1 0
c p weight 1129 6.6666666666666671e-07 0
c p weight -1129 0.99999000000000005 0
c p weight 1130 1 0
c p weight -1130 1 0
c p weight 1131 1 0
c p weight -1131 1 0
c p weight 1132 1 0
c p weight -1132 1 0
c p weight 1133 1 0
c p weight -1133 1 0
c p weight 1134 3.3333333333333337e-06 0
c p weight -1134 0.99999000000000005 0
c p weight 1135 1 0
c p weight -1135 1 0
c p weight 1136 1 0
c p weight -1136 1 0
c p weight 1137 3.3333333333333337e-06 0
c p weight -1137 0.99999000000000005 0
c p weight 1138 1 0
c p weight -1138 1 0
c p weight 1139 1 0
c p weight -1139 1 0
c p weight 1140 3.3333333333333337e-06 0
c p weight -1140 0.99999000000000005 0
c p weight 1141 1 0
c p weight -1141 1 0
c p weight 1142 1 0
c p weight -1142 1 0
c p weight 1143 3.3333333333333337e-06 0
c p weight -1143 0.99999000000000005 0
c p weight 1144 1 0
c p weight -1144 1 0
c p weight 1145 1 0
c p weight -1145 1 0
c p weight 1146 3.3333333333333337e-06 0
c p weight -1146 0.99999000000000005 0
c p weight 1147 1 0
c p weight -1147 1 0
c p weight 1148 1 0
c p weight -1148 1 0
c p weight 1149 3.3333333333333337e-06 0
c p weight -1149 0.99999000000000005 0
c p weight 1150 1 0
c p weight -1150 1 0
c p weight 1151 1 0
c p weight -1151 1 0
c p weight 1152 3.3333333333333337e-06 0
c p weight -1152 0.99999000000000005 0
c p weight 1153 1 0
c p weight -1153 1 0
c p weight 1154 1 0
c p weight -1154 1 0
c p weight 1155 3.3333333333333337e-06 0
c p weight -1155 0.99999000000000005 0
c p weight 1156 1 0
c p weight -1156 1 0
c p weight 1157 1 0
c p weight -1157 1 0
c p weight 1158 3.3333333333333337e-06 0
c p weight -1158 0.99999000000000005 0
c p weight 1159 1 0
c p weight -1159 1 0
c p weight 1160 1 0
c p weight -1160 1 0
c p weight 1161 3.3333333333333337e-06 0
c p weight -1161 0.99999000000000005 0
c p weight 1162 1 0
c p weight -1162 1 0
c p weight 1163 1 0
c p weight -1163 1 0
c p weight 1164 3.3333333333333337e-06 0
c p weight -1164 0.99999000000000005 0
c p weight 1165 1 0
c p weight -1165 1 0
c p weight 1166 1 0
c p weight -1166 1 0
c p weight 1167 3.3333333333333337e-06 0
c p weight -1167 0.99999000000000005 0
c p weight 1168 1 0
c p weight -1168 1 0
c p weight 1169 1 0
c p weight -1169 1 0
c p weight 1170 3.3333333333333337e-06 0
c p weight -1170 0.99999000000000005 0
c p weight 1171 1 0
c p weight -1171 1 0
c p weight 1172 1 0
c p weight -1172 1 0
c p weight 1173 3.3333333333333337e-06 0
c p weight -1173 0.99999000000000005 0
c p weight 1174 1 0
c p weight -1174 1 0
c p weight 1175 1 0
c p weight -1175 1 0
c p weight 1176 3.3333333333333337e-06 0
c p weight -1176 0.99999000000000005 0
c p weight 1177 1 0
c p weight -1177 1 0
c p weight 1178 1 0
c p weight -1178 1 0
c p weight 1179 3.3333333333333337e-06 0
c p weight -1179 0.99999000000000005 0
c p weight 1180 1 0
c p weight -1180 1 0
c p weight 1181 1 0
c p weight -1181 1 0
c p weight 1182 3.3333333333333337e-06 0
c p weight -1182 0.99999000000000005 0
c p weight 1183 1 0
c p weight -1183 1 0
c p weight 1184 1 0
c p weight -1184 1 0
c p weight 1185 3.3333333333333337e-06 0
c p weight -1185 0.99999000000000005 0
c p weight 1186 1 0
c p weight -1186 1 0
c p weight 1187 1 0
c p weight -1187 1 0
c p weight 1188 3.3333333333333337e-06 0
c p weight -1188 0.99999000000000005 0
c p weight 1189 1 0
c p weight -1189 1 0
c p weight 1190 1 0
c p weight -1190 1 0
c p weight 1191 6.6666666666666671e-07 0
c p weight -1191 0.99999000000000005 0
c p weight 1192 1 0
c p weight -1192 1 0
c p weight 1193 1 0
c p weight -1193 1 0
c p weight 1194 1 0
c p weight -1194 1 0
c p weight 1195 1 0
c p weight -1195 1 0
c p weight 1196 3.3333333333333337e-06 0
c p weight -1196 0.99999000000000005 0
c p weight 1197 1 0
c p weight -1197 1 0
c p weight 1198 1 0
c p weight -1198 1 0
c p weight 1199 3.3333333333333337e-06 0
c p weight -1199 0.99999000000000005 0
c p weight 1200 1 0
c p weight -1200 1 0
c p weight 1201 1 0
c p weight -1201 1 0
c p weight 1202 3.3333333333333337e-06 0
c p weight -1202 0.99999000000000005 0
c p weight 1203 1 0
c p weight -1203 1 0
c p weight 1204 1 0
c p weight -1204 1 0
c p weight 1205 3.3333333333333337e-06 0
c p weight -1205 0.99999000000000005 0
c p weight 1206 1 0
c p weight -1206 1 0
c p weight 1207 1 0
c p weight -1207 1 0
c p weight 1208 3.3333333333333337e-06 0
c p weight -1208 0.99999000000000005 0
c p weight 1209 1 0
c p weight -1209 1 0
c p weight 1210 1 0
c p weight -1210 1 0
c p weight 1211 3.3333333333333337e-06 0
c p weight -1211 0.99999000000000005 0
c p weight 1212 1 0
c p weight -1212 1 0
c p weight 1213 1 0
c p weight -1213 1 0
c p weight 1214 3.3333333333333337e-06 0
c p weight -1214 0.99999000000000005 0
c p weight 1215 1 0
c p weight -1215 1 0
c p weight 1216 1 0
c p weight -1216 1 0
c p weight 1217 3.3333333333333337e-06 0
c p weight -1217 0.99999000000000005 0
c p weight 1218 1 0
c p weight -1218 1 0
c p weight 1219 1 0
c p weight -1219 1 0
c p weight 1220 3.3333333333333337e-06 0
c p weight -1220 0.99999000000000005 0
c p weight 1221 1 0
c p weight -1221 1 0
c p weight 1222 1 0
c p weight -1222 1 0
c p weight 1223 3.3333333333333337e-06 0
c p weight -1223 0.99999000000000005 0
c p weight 1224 1 0
c p weight -1224 1 0
c p weight 1225 1 0
c p weight -1225 1 0
c p weight 1226 3.3333333333333337e-06 0
c p weight -1226 0.99999000000000005 0
c p weight 1227 1 0
c p weight -1227 1 0
c p weight 1228 1 0
c p weight -1228 1 0
c p weight 1229 3.3333333333333337e-06 0
c p weight -1229 0.99999000000000005 0
c p weight 1230 1 0
c p weight -1230 1 0
c p weight 1231 1 0
c p weight -1231 1 0
c p weight 1232 3.3333333333333337e-06 0
c p weight -1232 0.99999000000000005 0
c p weight 1233 1 0
c p weight -1233 1 0
c p weight 1234 1 0
c p weight -1234 1 0
c p weight 1235 3.3333333333333337e-06 0
c p weight -1235 0.99999000000000005 0
c p weight 1236 1 0
c p weight -1236 1 0
c p weight 1237 1 0
c p weight -1237 1 0
c p weight 1238 3.3333333333333337e-06 0
c p weight -1238 0.99999000000000005 0
c p weight 1239 1 0
c p weight -1239 1 0
c p weight 1240 1 0
c p weight -1240 1 0
c p weight 1241 3.3333333333333337e-06 0
c p weight -1241 0.99999000000000005 0
c p weight 1242 1 0
c p weight -1242 1 0
c p weight 1243 1 0
c p weight -1243 1 0
c p weight 1244 3.3333333333333337e-06 0
c p weight -1244 0.99999000000000005 0
c p weight 1245 1 0
c p weight -1245 1 0
c p weight 1246 1 0
c p weight -1246 1 0
c p weight 1247 3.3333333333333337e-06 0
c p weight -1247 0.99999000000000005 0
c p weight 1248 1 0
c p weight -1248 1 0
c p weight 1249 1 0
c p weight -1249 1 0
c p weight 1250 3.3333333333333337e-06 0
c p weight -1250 0.99999000000000005 0
c p weight 1251 1 0
c p weight -1251 1 0
c p weight 1252 1 0
c p weight -1252 1 0
c p weight 1253 6.6666666666666671e-07 0
c p weight -1253 0.99999000000000005 0
c p weight 1254 1 0
c p weight -1254 1 0
c p weight 1255 1 0
c p weight -1255 1 0
c p weight 1256 1 0
c p weight -1256 1 0
c p weight 1257 1 0
c p weight -1257 1 0
c p weight 1258 3.3333333333333337e-06 0
c p weight -1258 0.99999000000000005 0
c p weight 1259 1 0
c p weight -1259 1 0
c p weight 1260 1 0
c p weight -1260 1 0
c p weight 1261 3.3333333333333337e-06 0
c p weight -1261 0.99999000000000005 0
c p weight 1262 1 0
c p weight -1262 1 0
c p weight 1263 1 0
c p weight -1263 1 0
c p weight 1264 3.3333333333333337e-06 0
c p weight -1264 0.99999000000000005 0
c p weight 1265 1 0
c p weight -1265 1 0
c p weight 1266 1 0
c p weight -1266 1 0
c p weight 1267 3.3333333333333337e-06 0
c p weight -1267 0.99999000000000005 0
c p weight 1268 1 0
c p weight -1268 1 0
c p weight 1269 1 0
c p weight -1269 1 0
c p weight 1270 3.3333333333333337e-06 0
c p weight -1270 0.99999000000000005 0
c p weight 1271 1 0
c p weight -1271 1 0
c p weight 1272 1 0
c p weight -1272 1 0
c p weight 1273 3.3333333333333337e-06 0
c p weight -1273 0.99999000000000005 0
c p weight 1274 1 0
c p weight -1274 1 0
c p weight 1275 1 0
c p weight -1275 1 0
c p weight 1276 3.3333333333333337e-06 0
c p weight -1276 0.99999000000000005 0
c p weight 1277 1 0
c p weight -1277 1 0
c p weight 1278 1 0
c p weight -1278 1 0
c p weight 1279 3.3333333333333337e-06 0
c p weight -1279 0.99999000000000005 0
c p weight 1280 1 0
c p weight -1280 1 0
c p weight 1281 1 0
c p weight -1281 1 0
c p weight 1282 3.3333333333333337e-06 0
c p weight -1282 0.99999000000000005 0
c p weight 1283 1 0
c p weight -1283 1 0
c p weight 1284 1 0
c p weight -1284 1 0
c p weight 1285 3.3333333333333337e-06 0
c p weight -1285 0.99999000000000005 0
c p weight 1286 1 0
c p weight -1286 1 0
c p weight 1287 1 0
c p weight -1287 1 0
c p weight 1288 3.3333333333333337e-06 0
c p weight -1288 0.99999000000000005 0
c p weight 1289 1 0
c p weight -1289 1 0
c p weight 1290 1 0
c p weight -1290 1 0
c p weight 1291 3.3333333333333337e-06 0
c p weight -1291 0.99999000000000005 0
c p weight 1292 1 0
c p weight -1292 1 0
c p weight 1293 1 0
c p weight -1293 1 0
c p weight 1294 3.3333333333333337e-06 0
c p weight -1294 0.99999000000000005 0
c p weight 1295 1 0
c p weight -1295 1 0
c p weight 1296 1 0
c p weight -1296 1 0
c p weight 1297 3.3333333333333337e-06 0
c p weight -1297 0.99999000000000005 0
c p weight 1298 1 0
c p weight -1298 1 0
c p weight 1299 1 0
c p weight -1299 1 0
c p weight 1300 3.3333333333333337e-06 0
c p weight -1300 0.99999000000000005 0
c p weight 1301 1 0
c p weight -1301 1 0
c p weight 1302 1 0
c p weight -1302 1 0
c p weight 1303 3.3333333333333337e-06 0
c p weight -1303 0.99999000000000005 0
c p weight 1304 1 0
c p weight -1304 1 0
c p weight 1305 1 0
c p weight -1305 1 0
c p weight 1306 3.3333333333333337e-06 0
c p weight -1306 0.99999000000000005 0
c p weight 1307 1 0
c p weight -1307 1 0
c p weight 1308 1 0
c p weight -1308 1 0
c p weight 1309 3.3333333333333337e-06 0
c p weight -1309 0.99999000000000005 0
c p weight 1310 1 0
c p weight -1310 1 0
c p weight 1311 1 0
c p weight -1311 1 0
c p weight 1312 3.3333333333333337e-06 0
c p weight -1312 0.99999000000000005 0
c p weight 1313 1 0
c p weight -1313 1 0
c p weight 1314 1 0
c p weight -1314 1 0
c p weight 1315 6.6666666666666671e-07 0
c p weight -1315 0.99999000000000005 0
c p weight 1316 1 0
c p weight -1316 1 0
c p weight 1317 1 0
c p weight -1317 1 0
c p weight 1318 1 0
c p weight -1318 1 0
c p weight 1319 1 0
c p weight -1319 1 0
c p weight 1320 3.3333333333333337e-06 0
c p weight -1320 0.99999000000000005 0
c p weight 1321 1 0
c p weight -1321 1 0
c p weight 1322 1 0
c p weight -1322 1 0
c p weight 1323 3.3333333333333337e-06 0
c p weight -1323 0.99999000000000005 0
c p weight 1324 1 0
c p weight -1324 1 0
c p weight 1325 1 0
c p weight -1325 1 0
c p weight 1326 3.3333333333333337e-06 0
c p weight -1326 0.99999000000000005 0
c p weight 1327 1 0
c p weight -1327 1 0
c p weight 1328 1 0
c p weight -1328 1 0
c p weight 1329 3.3333333333333337e-06 0
c p weight -1329 0.99999000000000005 0
c p weight 1330 1 0
c p weight -1330 1 0
c p weight 1331 1 0
c p weight -1331 1 0
c p weight 1332 3.3333333333333337e-06 0
c p weight -1332 0.99999000000000005 0
c p weight 1333 1 0
c p weight -1333 1 0
c p weight 1334 1 0
c p weight -1334 1 0
c p weight 1335 3.3333333333333337e-06 0
c p weight -1335 0.99999000000000005 0
c p weight 1336 1 0
c p weight -1336 1 0
c p weight 1337 1 0
c p weight -1337 1 0
c p weight 1338 3.3333333333333337e-06 0
c p weight -1338 0.99999000000000005 0
c p weight 1339 1 0
c p weight -1339 1 0
c p weight 1340 1 0
c p weight -1340 1 0
c p weight 1341 3.3333333333333337e-06 0
c p weight -1341 0.99999000000000005 0
c p weight 1342 1 0
c p weight -1342 1 0
c p weight 1343 1 0
c p weight -1343 1 0
c p weight 1344 3.3333333333333337e-06 0
c p weight -1344 0.99999000000000005 0
c p weight 1345 1 0
c p weight -1345 1 0
c p weight 1346 1 0
c p weight -1346 1 0
c p weight 1347 3.3333333333333337e-06 0
c p weight -1347 0.99999000000000005 0
c p weight 1348 1 0
c p weight -1348 1 0
c p weight 1349 1 0
c p weight -1349 1 0
c p weight 1350 3.3333333333333337e-06 0
c p weight -1350 0.99999000000000005 0
c p weight 1351 1 0
c p weight -1351 1 0
c p weight 1352 1 0
c p weight -1352 1 0
c p weight 1353 3.3333333333333337e-06 0
c p weight -1353 0.99999000000000005 0
c p weight 1354 1 0
c p weight -1354 1 0
c p weight 1355 1 0
c p weight -1355 1 0
c p weight 1356 3.3333333333333337e-06 0
c p weight -1356 0.99999000000000005 0
c p weight 1357 1 0
c p weight -1357 1 0
c p weight 1358 1 0
c p weight -1358 1 0
c p weight 1359 3.3333333333333337e-06 0
c p weight -1359 0.99999000000000005 0
c p weight 1360 1 0
c p weight -1360 1 0
c p weight 1361 1 0
c p weight -1361 1 0
c p weight 1362 3.3333333333333337e-06 0
c p weight -1362 0.99999000000000005 0
c p weight 1363 1 0
c p weight -1363 1 0
c p weight 1364 1 0
c p weight -1364 1 0
c p weight 1365 3.3333333333333337e-06 0
c p weight -1365 0.99999000000000005 0
c p weight 1366 1 0
c p weight -1366 1 0
c p weight 1367 1 0
c p weight -1367 1 0
c p weight 1368 3.3333333333333337e-06 0
c p weight -1368 0.99999000000000005 0
c p weight 1369 1 0
c p weight -1369 1 0
c p weight 1370 1 0
c p weight -1370 1 0
c p weight 1371 3.3333333333333337e-06 0
c p weight -1371 0.99999000000000005 0
c p weight 1372 1 0
c p weight -1372 1 0
c p weight 1373 1 0
c p weight -1373 1 0
c p weight 1374 3.3333333333333337e-06 0
c p weight -1374 0.99999000000000005 0
c p weight 1375 1 0
c p weight -1375 1 0
c p weight 1376 1 0
c p weight -1376 1 0
c p weight 1377 6.6666666666666671e-07 0
c p weight -1377 0.99999000000000005 0
c p weight 1378 1 0
c p weight -1378 1 0
c p weight 1379 1 0
c p weight -1379 1 0
c p weight 1380 1 0
c p weight -1380 1 0
c p weight 1381 1 0
c p weight -1381 1 0
c p weight 1382 3.3333333333333337e-06 0
c p weight -1382 0.99999000000000005 0
c p weight 1383 1 0
c p weight -1383 1 0
c p weight 1384 1 0
c p weight -1384 1 0
c p weight 1385 3.3333333333333337e-06 0
c p weight -1385 0.99999000000000005 0
c p weight 1386 1 0
c p weight -1386 1 0
c p weight 1387 1 0
c p weight -1387 1 0
c p weight 1388 3.3333333333333337e-06 0
c p weight -1388 0.99999000000000005 0
c p weight 1389 1 0
c p weight -1389 1 0
c p weight 1390 1 0
c p weight -1390 1 0
c p weight 1391 3.3333333333333337e-06 0
c p weight -1391 0.99999000000000005 0
c p weight 1392 1 0
c p weight -1392 1 0
c p weight 1393 1 0
c p weight -1393 1 0
c p weight 1394 3.3333333333333337e-06 0
c p weight -1394 0.99999000000000005 0
c p weight 1395 1 0
c p weight -1395 1 0
c p weight 1396 1 0
c p weight -1396 1 0
c p weight 1397 3.3333333333333337e-06 0
c p weight -1397 0.99999000000000005 0
c p weight 1398 1 0
c p weight -1398 1 0
c p weight 1399 1 0
c p weight -1399 1 0
c p weight 1400 3.3333333333333337e-06 0
c p weight -1400 0.99999000000000005 0
c p weight 1401 1 0
c p weight -1401 1 0
c p weight 1402 1 0
c p weight -1402 1 0
c p weight 1403 3.3333333333333337e-06 0
c p weight -1403 0.99999000000000005 0
c p weight 1404 1 0
c p weight -1404 1 0
c p weight 1405 1 0
c p weight -1405 1 0
c p weight 1406 3.3333333333333337e-06 0
c p weight -1406 0.99999000000000005 0
c p weight 1407 1 0
c p weight -1407 1 0
c p weight 1408 1 0
c p weight -1408 1 0
c p weight 1409 3.3333333333333337e-06 0
c p weight -1409 0.99999000000000005 0
c p weight 1410 1 0
c p weight -1410 1 0
c p weight 1411 1 0
c p weight -1411 1 0
c p weight 1412 3.3333333333333337e-06 0
c p weight -1412 0.99999000000000005 0
c p weight 1413 1 0
c p weight -1413 1 0
c p weight 1414 1 0
c p weight -1414 1 0
c p weight 1415 3.3333333333333337e-06 0
c p weight -1415 0.99999000000000005 0
c p weight 1416 1 0
c p weight -1416 1 0
c p weight 1417 1 0
c p weight -1417 1 0
c p weight 1418 3.3333333333333337e-06 0
c p weight -1418 0.99999000000000005 0
c p weight 1419 1 0
c p weight -1419 1 0
c p weight 1420 1 0
c p weight -1420 1 0
c p weight 1421 3.3333333333333337e-06 0
c p weight -1421 0.99999000000000005 0
c p weight 1422 1 0
c p weight -1422 1 0
c p weight 1423 1 0
c p weight -1423 1 0
c p weight 1424 3.3333333333333337e-06 0
c p weight -1424 0.99999000000000005 0
c p weight 1425 1 0
c p weight -1425 1 0
c p weight 1426 1 0
c p weight -1426 1 0
c p weight 1427 3.3333333333333337e-06 0
c p weight -1427 0.99999000000000005 0
c p weight 1428 1 0
c p weight -1428 1 0
c p weight 1429 1 0
c p weight -1429 1 0
c p weight 1430 3.3333333333333337e-06 0
c p weight -1430 0.99999000000000005 0
c p weight 1431 1 0
c p weight -1431 1 0
c p weight 1432 1 0
c p weight -1432 1 0
c p weight 1433 3.3333333333333337e-06 0
c p weight -1433 0.99999000000000005 0
c p weight 1434 1 0
c p weight -1434 1 0
c p weight 1435 1 0
c p weight -1435 1 0
c p weight 1436 3.3333333333333337e-06 0
c p weight -1436 0.99999000000000005 0
c p weight 1437 1 0
c p weight -1437 1 0
c p weight 1438 1 0
c p weight -1438 1 0
c p weight 1439 6.6666666666666671e-07 0
c p weight -1439 0.99999000000000005 0
c p weight 1440 1 0
c p weight -1440 1 0
c p weight 1441 1 0
c p weight -1441 1 0
c p weight 1442 1 0
c p weight -1442 1 0
c p weight 1443 1 0
c p weight -1443 1 0
c p weight 1444 3.3333333333333337e-06 0
c p weight -1444 0.99999000000000005 0
c p weight 1445 1 0
c p weight -1445 1 0
c p weight 1446 1 0
c p weight -1446 1 0
c p weight 1447 3.3333333333333337e-06 0
c p weight -1447 0.99999000000000005 0
c p weight 1448 1 0
c p weight -1448 1 0
c p weight 1449 1 0
c p weight -1449 1 0
c p weight 1450 3.3333333333333337e-06 0
c p weight -1450 0.99999000000000005 0
c p weight 1451 1 0
c p weight -1451 1 0
c p weight 1452 1 0
c p weight -1452 1 0
c p weight 1453 3.3333333333333337e-06 0
c p weight -1453 0.99999000000000005 0
c p weight 1454 1 0
c p weight -1454 1 0
c p weight 1455 1 0
c p weight -1455 1 0
c p weight 1456 3.3333333333333337e-06 0
c p weight -1456 0.99999000000000005 0
c p weight 1457 1 0
c p weight -1457 1 0
c p weight 1458 1 0
c p weight -1458 1 0
c p weight 1459 3.3333333333333337e-06 0
c p weight -1459 0.99999000000000005 0
c p weight 1460 1 0
c p weight -1460 1 0
c p weight 1461 1 0
c p weight -1461 1 0
c p weight 1462 3.3333333333333337e-06 0
c p weight -1462 0.99999000000000005 0
c p weight 1463 1 0
c p weight -1463 1 0
c p weight 1464 1 0
c p weight -1464 1 0
c p weight 1465 3.3333333333333337e-06 0
c p weight -1465 0.99999000000000005 0
c p weight 1466 1 0
c p weight -1466 1 0
c p weight 1467 1 0
c p weight -1467 1 0
c p weight 1468 3.3333333333333337e-06 0
c p weight -1468 0.99999000000000005 0
c p weight 1469 1 0
c p weight -1469 1 0
c p weight 1470 1 0
c p weight -1470 1 0
c p weight 1471 3.3333333333333337e-06 0
c p weight -1471 0.99999000000000005 0
c p weight 1472 1 0
c p weight -1472 1 0
c p weight 1473 1 0
c p weight -1473 1 0
c p weight 1474 3.3333333333333337e-06 0
c p weight -1474 0.99999000000000005 0
c p weight 1475 1 0
c p weight -1475 1 0
c p weight 1476 1 0
c p weight -1476 1 0
c p weight 1477 3.3333333333333337e-06 0
c p weight -1477 0.99999000000000005 0
c p weight 1478 1 0
c p weight -1478 1 0
c p weight 1479 1 0
c p weight -1479 1 0
c p weight 1480 3.3333333333333337e-06 0
c p weight -1480 0.99999000000000005 0
c p weight 1481 1 0
c p weight -1481 1 0
c p weight 1482 1 0
c p weight -1482 1 0
c p weight 1483 3.3333333333333337e-06 0
c p weight -1483 0.99999000000000005 0
c p weight 1484 1 0
c p weight -1484 1 0
c p weight 1485 1 0
c p weight -1485 1 0
c p weight 1486 3.3333333333333337e-06 0
c p weight -1486 0.99999000000000005 0
c p weight 1487 1 0
c p weight -1487 1 0
c p weight 1488 1 0
c p weight -1488 1 0
c p weight 1489 3.3333333333333337e-06 0
c p weight -1489 0.99999000000000005 0
c p weight 1490 1 0
c p weight -1490 1 0
c p weight 1491 1 0
c p weight -1491 1 0
c p weight 1492 3.3333333333333337e-06 0
c p weight -1492 0.99999000000000005 0
c p weight 1493 1 0
c p weight -1493 1 0
c p weight 1494 1 0
c p weight -1494 1 0
c p weight 1495 3.3333333333333337e-06 0
c p weight -1495 0.99999000000000005 0
c p weight 1496 1 0
c p weight -1496 1 0
c p weight 1497 1 0
c p weight -1497 1 0
c p weight 1498 3.3333333333333337e-06 0
c p weight -1498 0.99999000000000005 0
c p weight 1499 1 0
c p weight -1499 1 0
c p weight 1500 1 0
c p weight -1500 1 0
c p weight 1501 6.6666666666666671e-07 0
c p weight -1501 0.99999000000000005 0
c p weight 1502 1 0
c p weight -1502 1 0
c p weight 1503 1 0
c p weight -1503 1 0
c p weight 1504 1 0
c p weight -1504 1 0
c p weight 1505 1 0
c p weight -1505 1 0
c p weight 1506 3.3333333333333337e-06 0
c p weight -1506 0.99999000000000005 0
c p weight 1507 1 0
c p weight -1507 1 0
c p weight 1508 1 0
c p weight -1508 1 0
c p weight 1509 3.3333333333333337e-06 0
c p weight -1509 0.99999000000000005 0
c p weight 1510 1 0
c p weight -1510 1 0
c p weight 1511 1 0
c p weight -1511 1 0
c p weight 1512 3.3333333333333337e-06 0
c p weight -1512 0.99999000000000005 0
c p weight 1513 1 0
c p weight -1513 1 0
c p weight 1514 1 0
c p weight -1514 1 0
c p weight 1515 3.3333333333333337e-06 0
c p weight -1515 0.99999000000000005 0
c p weight 1516 1 0
c p weight -1516 1 0
c p weight 1517 1 0
c p weight -1517 1 0
c p weight 1518 3.3333333333333337e-06 0
c p weight -1518 0.99999000000000005 0
c p weight 1519 1 0
c p weight -1519 1 0
c p weight 1520 1 0
c p weight -1520 1 0
c p weight 1521 3.3333333333333337e-06 0
c p weight -1521 0.99999000000000005 0
c p weight 1522 1 0
c p weight -1522 1 0
c p weight 1523 1 0
c p weight -1523 1 0
c p weight 1524 3.3333333333333337e-06 0
c p weight -1524 0.99999000000000005 0
c p weight 1525 1 0
c p weight -1525 1 0
c p weight 1526 1 0
c p weight -1526 1 0
c p weight 1527 3.3333333333333337e-06 0
c p weight -1527 0.99999000000000005 0
c p weight 1528 1 0
c p weight -1528 1 0
c p weight 1529 1 0
c p weight -1529 1 0
c p weight 1530 3.3333333333333337e-06 0
c p weight -1530 0.99999000000000005 0
c p weight 1531 1 0
c p weight -1531 1 0
c p weight 1532 1 0
c p weight -1532 1 0
c p weight 1533 3.3333333333333337e-06 0
c p weight -1533 0.99999000000000005 0
c p weight 1534 1 0
c p weight -1534 1 0
c p weight 1535 1 0
c p weight -1535 1 0
c p weight 1536 3.3333333333333337e-06 0
c p weight -1536 0.99999000000000005 0
c p weight 1537 1 0
c p weight -1537 1 0
c p weight 1538 1 0
c p weight -1538 1 0
c p weight 1539 3.3333333333333337e-06 0
c p weight -1539 0.99999000000000005 0
c p weight 1540 1 0
c p weight -1540 1 0
c p weight 1541 1 0
c p weight -1541 1 0
c p weight 1542 3.3333333333333337e-06 0
c p weight -1542 0.99999000000000005 0
c p weight 1543 1 0
c p weight -1543 1 0
c p weight 1544 1 0
c p weight -1544 1 0
c p weight 1545 3.3333333333333337e-06 0
c p weight -1545 0.99999000000000005 0
c p weight 1546 1 0
c p weight -1546 1 0
c p weight 1547 1 0
c p weight -1547 1 0
c p weight 1548 3.3333333333333337e-06 0
c p weight -1548 0.99999000000000005 0
c p weight 1549 1 0
c p weight -1549 1 0
c p weight 1550 1 0
c p weight -1550 1 0
c p weight 1551 3.3333333333333337e-06 0
c p weight -1551 0.99999000000000005 0
c p weight 1552 1 0
c p weight -1552 1 0
c p weight 1553 1 0
c p weight -1553 1 0
c p weight 1554 3.3333333333333337e-06 0
c p weight -1554 0.99999000000000005 0
c p weight 1555 1 0
c p weight -1555 1 0
c p weight 1556 1 0
c p weight -1556 1 0
c p weight 1557 3.3333333333333337e-06 0
c p weight -1557 0.99999000000000005 0
c p weight 1558 1 0
c p weight -1558 1 0
c p weight 1559 1 0
c p weight -1559 1 0
c p weight 1560 3.3333333333333337e-06 0
c p weight -1560 0.99999000000000005 0
c p weight 1561 1 0
c p weight -1561 1 0
c p weight 1562 1 0
c p weight -1562 1 0
c p weight 1563 6.6666666666666671e-07 0
c p weight -1563 0.99999000000000005 0
c p weight 1564 1 0
c p weight -1564 1 0
c p weight 1565 1 0
c p weight -1565 1 0
c p weight 1566 1 0
c p weight -1566 1 0
c p weight 1567 1 0
c p weight -1567 1 0
c p weight 1568 3.3333333333333337e-06 0
c p weight -1568 0.99999000000000005 0
c p weight 1569 1 0
c p weight -1569 1 0
c p weight 1570 1 0
c p weight -1570 1 0
c p weight 1571 3.3333333333333337e-06 0
c p weight -1571 0.99999000000000005 0
c p weight 1572 1 0
c p weight -1572 1 0
c p weight 1573 1 0
c p weight -1573 1 0
c p weight 1574 3.3333333333333337e-06 0
c p weight -1574 0.99999000000000005 0
c p weight 1575 1 0
c p weight -1575 1 0
c p weight 1576 1 0
c p weight -1576 1 0
c p weight 1577 3.3333333333333337e-06 0
c p weight -1577 0.99999000000000005 0
c p weight 1578 1 0
c p weight -1578 1 0
c p weight 1579 1 0
c p weight -1579 1 0
c p weight 1580 3.3333333333333337e-06 0
c p weight -1580 0.99999000000000005 0
c p weight 1581 1 0
c p weight -1581 1 0
c p weight 1582 1 0
c p weight -1582 1 0
c p weight 1583 3.3333333333333337e-06 0
c p weight -1583 0.99999000000000005 0
c p weight 1584 1 0
c p weight -1584 1 0
c p weight 1585 1 0
c p weight -1585 1 0
c p weight 1586 3.3333333333333337e-06 0
c p weight -1586 0.99999000000000005 0
c p weight 1587 1 0
c p weight -1587 1 0
c p weight 1588 1 0
c p weight -1588 1 0
c p weight 1589 3.3333333333333337e-06 0
c p weight -1589 0.99999000000000005 0
c p weight 1590 1 0
c p weight -1590 1 0
c p weight 1591 1 0
c p weight -1591 1 0
c p weight 1592 3.3333333333333337e-06 0
c p weight -1592 0.99999000000000005 0
c p weight 1593 1 0
c p weight -1593 1 0
c p weight 1594 1 0
c p weight -1594 1 0
c p weight 1595 3.3333333333333337e-06 0
c p weight -1595 0.99999000000000005 0
c p weight 1596 1 0
c p weight -1596 1 0
c p weight 1597 1 0
c p weight -1597 1 0
c p weight 1598 3.3333333333333337e-06 0
c p weight -1598 0.99999000000000005 0
c p weight 1599 1 0
c p weight -1599 1 0
c p weight 1600 1 0
c p weight -1600 1 0
c p weight 1601 3.3333333333333337e-06 0
c p weight -1601 0.99999000000000005 0
c p weight 1602 1 0
c p weight -1602 1 0
c p weight 1603 1 0
c p weight -1603 1 0
c p weight 1604 3.3333333333333337e-06 0
c p weight -1604 0.99999000000000005 0
c p weight 1605 1 0
c p weight -1605 1 0
c p weight 1606 1 0
c p weight -1606 1 0
c p weight 1607 3.3333333333333337e-06 0
c p weight -1607 0.99999000000000005 0
c p weight 1608 1 0
c p weight -1608 1 0
c p weight 1609 1 0
c p weight -1609 1 0
c p weight 1610 3.3333333333333337e-06 0
c p weight -1610 0.99999000000000005 0
c p weight 1611 1 0
c p weight -1611 1 0
c p weight 1612 1 0
c p weight -1612 1 0
c p weight 1613 3.3333333333333337e-06 0
c p weight -1613 0.99999000000000005 0
c p weight 1614 1 0
c p weight -1614 1 0
c p weight 1615 1 0
c p weight -1615 1 0
c p weight 1616 3.3333333333333337e-06 0
c p weight -1616 0.99999000000000005 0
c p weight 1617 1 0
c p weight -1617 1 0
c p weight 1618 1 0
c p weight -1618 1 0
c p weight 1619 3.3333333333333337e-06 0
c p weight -1619 0.99999000000000005 0
c p weight 1620 1 0
c p weight -1620 1 0
c p weight 1621 1 0
c p weight -1621 1 0
c p weight 1622 3.3333333333333337e-06 0
c p weight -1622 0.99999000000000005 0
c p weight 1623 1 0
c p weight -1623 1 0
c p weight 1624 1 0
c p weight -1624 1 0
c p weight 1625 6.6666666666666671e-07 0
c p weight -1625 0.99999000000000005 0
c p weight 1626 1 0
c p weight -1626 1 0
c p weight 1627 1 0
c p weight -1627 1 0
c p weight 1628 1 0
c p weight -1628 1 0
c p weight 1629 1 0
c p weight -1629 1 0
c p weight 1630 3.3333333333333337e-06 0
c p weight -1630 0.99999000000000005 0
c p weight 1631 1 0
c p weight -1631 1 0
c p weight 1632 1 0
c p weight -1632 1 0
c p weight 1633 3.3333333333333337e-06 0
c p weight -1633 0.99999000000000005 0
c p weight 1634 1 0
c p weight -1634 1 0
c p weight 1635 1 0
c p weight -1635 1 0
c p weight 1636 3.3333333333333337e-06 0
c p weight -1636 0.99999000000000005 0
c p weight 1637 1 0
c p weight -1637 1 0
c p weight 1638 1 0
c p weight -1638 1 0
c p weight 1639 3.3333333333333337e-06 0
c p weight -1639 0.99999000000000005 0
c p weight 1640 1 0
c p weight -1640 1 0
c p weight 1641 1 0
c p weight -1641 1 0
c p weight 1642 3.3333333333333337e-06 0
c p weight -1642 0.99999000000000005 0
c p weight 1643 1 0
c p weight -1643 1 0
c p weight 1644 1 0
c p weight -1644 1 0
c p weight 1645 3.3333333333333337e-06 0
c p weight -1645 0.99999000000000005 0
c p weight 1646 1 0
c p weight -1646 1 0
c p weight 1647 1 0
c p weight -1647 1 0
c p weight 1648 3.3333333333333337e-06 0
c p weight -1648 0.99999000000000005 0
c p weight 1649 1 0
c p weight -1649 1 0
c p weight 1650 1 0
c p weight -1650 1 0
c p weight 1651 3.3333333333333337e-06 0
c p weight -1651 0.99999000000000005 0
c p weight 1652 1 0
c p weight -1652 1 0
c p weight 1653 1 0
c p weight -1653 1 0
c p weight 1654 3.3333333333333337e-06 0
c p weight -1654 0.99999000000000005 0
c p weight 1655 1 0
c p weight -1655 1 0
c p weight 1656 1 0
c p weight -1656 1 0
c p weight 1657 3.3333333333333337e-06 0
c p weight -1657 0.99999000000000005 0
c p weight 1658 1 0
c p weight -1658 1 0
c p weight 1659 1 0
c p weight -1659 1 0
c p weight 1660 3.3333333333333337e-06 0
c p weight -1660 0.99999000000000005 0
c p weight 1661 1 0
c p weight -1661 1 0
c p weight 1662 1 0
c p weight -1662 1 0
c p weight 1663 3.3333333333333337e-06 0
c p weight -1663 0.99999000000000005 0
c p weight 1664 1 0
c p weight -1664 1 0
c p weight 1665 1 0
c p weight -1665 1 0
c p weight 1666 3.3333333333333337e-06 0
c p weight -1666 0.99999000000000005 0
c p weight 1667 1 0
c p weight -1667 1 0
c p weight 1668 1 0
c p weight -1668 1 0
c p weight 1669 3.3333333333333337e-06 0
c p weight -1669 0.99999000000000005 0
c p weight 1670 1 0
c p weight -1670 1 0
c p weight 1671 1 0
c p weight -1671 1 0
c p weight 1672 3.3333333333333337e-06 0
c p weight -1672 0.99999000000000005 0
c p weight 1673 1 0
c p weight -1673 1 0
c p weight 1674 1 0
c p weight -1674 1 0
c p weight 1675 3.3333333333333337e-06 0
c p weight -1675 0.99999000000000005 0
c p weight 1676 1 0
c p weight -1676 1 0
c p weight 1677 1 0
c p weight -1677 1 0
c p weight 1678 3.3333333333333337e-06 0
c p weight -1678 0.99999000000000005 0
c p weight 1679 1 0
c p weight -1679 1 0
c p weight 1680 1 0
c p weight -1680 1 0
c p weight 1681 3.3333333333333337e-06 0
c p weight -1681 0.99999000000000005 0
c p weight 1682 1 0
c p weight -1682 1 0
c p weight 1683 1 0
c p weight -1683 1 0
c p weight 1684 3.3333333333333337e-06 0
c p weight -1684 0.99999000000000005 0
c p weight 1685 1 0
c p weight -1685 1 0
c p weight 1686 1 0
c p weight -1686 1 0
c p weight 1687 6.6666666666666671e-07 0
c p weight -1687 0.99999000000000005 0
c p weight 1688 1 0
c p weight -1688 1 0
c p weight 1689 1 0
c p weight -1689 1 0
c p weight 1690 1 0
c p weight -1690 1 0
c p weight 1691 1 0
c p weight -1691 1 0
c p weight 1692 3.3333333333333337e-06 0
c p weight -1692 0.99999000000000005 0
c p weight 1693 1 0
c p weight -1693 1 0
c p weight 1694 1 0
c p weight -1694 1 0
c p weight 1695 3.3333333333333337e-06 0
c p weight -1695 0.99999000000000005 0
c p weight 1696 1 0
c p weight -1696 1 0
c p weight 1697 1 0
c p weight -1697 1 0
c p weight 1698 3.3333333333333337e-06 0
c p weight -1698 0.99999000000000005 0
c p weight 1699 1 0
c p weight -1699 1 0
c p weight 1700 1 0
c p weight -1700 1 0
c p weight 1701 3.3333333333333337e-06 0
c p weight -1701 0.99999000000000005 0
c p weight 1702 1 0
c p weight -1702 1 0
c p weight 1703 1 0
c p weight -1703 1 0
c p weight 1704 3.3333333333333337e-06 0
c p weight -1704 0.99999000000000005 0
c p weight 1705 1 0
c p weight -1705 1 0
c p weight 1706 1 0
c p weight -1706 1 0
c p weight 1707 3.3333333333333337e-06 0
c p weight -1707 0.99999000000000005 0
c p weight 1708 1 0
c p weight -1708 1 0
c p weight 1709 1 0
c p weight -1709 1 0
c p weight 1710 3.3333333333333337e-06 0
c p weight -1710 0.99999000000000005 0
c p weight 1711 1 0
c p weight -1711 1 0
c p weight 1712 1 0
c p weight -1712 1 0
c p weight 1713 3.3333333333333337e-06 0
c p weight -1713 0.99999000000000005 0
c p weight 1714 1 0
c p weight -1714 1 0
c p weight 1715 1 0
c p weight -1715 1 0
c p weight 1716 3.3333333333333337e-06 0
c p weight -1716 0.99999000000000005 0
c p weight 1717 1 0
c p weight -1717 1 0
c p weight 1718 1 0
c p weight -1718 1 0
c p weight 1719 3.3333333333333337e-06 0
c p weight -1719 0.99999000000000005 0
c p weight 1720 1 0
c p weight -1720 1 0
c p weight 1721 1 0
c p weight -1721 1 0
c p weight 1722 3.3333333333333337e-06 0
c p weight -1722 0.99999000000000005 0
c p weight 1723 1 0
c p weight -1723 1 0
c p weight 1724 1 0
c p weight -1724 1 0
c p weight 1725 3.3333333333333337e-06 0
c p weight -1725 0.99999000000000005 0
c p weight 1726 1 0
c p weight -1726 1 0
c p weight 1727 1 0
c p weight -1727 1 0
c p weight 1728 3.3333333333333337e-06 0
c p weight -1728 0.99999000000000005 0
c p weight 1729 1 0
c p weight -1729 1 0
c p weight 1730 1 0
c p weight -1730 1 0
c p weight 1731 3.3333333333333337e-06 0
c p weight -1731 0.99999000000000005 0
c p weight 1732 1 0
c p weight -1732 1 0
c p weight 1733 1 0
c p weight -1733 1 0
c p weight 1734 3.3333333333333337e-06 0
c p weight -1734 0.99999000000000005 0
c p weight 1735 1 0
c p weight -1735 1 0
c p weight 1736 1 0
c p weight -1736 1 0
c p weight 1737 3.3333333333333337e-06 0
c p weight -1737 0.99999000000000005 0
c p weight 1738 1 0
c p weight -1738 1 0
c p weight 1739 1 0
c p weight -1739 1 0
c p weight 1740 3.3333333333333337e-06 0
c p weight -1740 0.99999000000000005 0
c p weight 1741 1 0
c p weight -1741 1 0
c p weight 1742 1 0
c p weight -1742 1 0
c p weight 1743 3.3333333333333337e-06 0
c p weight -1743 0.99999000000000005 0
c p weight 1744 1 0
c p weight -1744 1 0
c p weight 1745 1 0
c p weight -1745 1 0
c p weight 1746 3.3333333333333337e-06 0
c p weight -1746 0.99999000000000005 0
c p weight 1747 1 0
c p weight -1747 1 0
c p weight 1748 1 0
c p weight -1748 1 0
c p weight 1749 6.6666666666666671e-07 0
c p weight -1749 0.99999000000000005 0
c p weight 1750 1 0
c p weight -1750 1 0
c p weight 1751 1 0
c p weight -1751 1 0
c p weight 1752 1 0
c p weight -1752 1 0
c p weight 1753 1 0
c p weight -1753 1 0
c p weight 1754 3.3333333333333337e-06 0
c p weight -1754 0.99999000000000005 0
c p weight 1755 1 0
c p weight -1755 1 0
c p weight 1756 1 0
c p weight -1756 1 0
c p weight 1757 3.3333333333333337e-06 0
c p weight -1757 0.99999000000000005 0
c p weight 1758 1 0
c p weight -1758 1 0
c p weight 1759 1 0
c p weight -1759 1 0
c p weight 1760 3.3333333333333337e-06 0
c p weight -1760 0.99999000000000005 0
c p weight 1761 1 0
c p weight -1761 1 0
c p weight 1762 1 0
c p weight -1762 1 0
c p weight 1763 3.3333333333333337e-06 0
c p weight -1763 0.99999000000000005 0
c p weight 1764 1 0
c p weight -1764 1 0
c p weight 1765 1 0
c p weight -1765 1 0
c p weight 1766 3.3333333333333337e-06 0
c p weight -1766 0.99999000000000005 0
c p weight 1767 1 0
c p weight -1767 1 0
c p weight 1768 1 0
c p weight -1768 1 0
c p weight 1769 3.3333333333333337e-06 0
c p weight -1769 0.99999000000000005 0
c p weight 1770 1 0
c p weight -1770 1 0
c p weight 1771 1 0
c p weight -1771 1 0
c p weight 1772 3.3333333333333337e-06 0
c p weight -1772 0.99999000000000005 0
c p weight 1773 1 0
c p weight -1773 1 0
c p weight 1774 1 0
c p weight -1774 1 0
c p weight 1775 3.3333333333333337e-06 0
c p weight -1775 0.99999000000000005 0
c p weight 1776 1 0
c p weight -1776 1 0
c p weight 1777 1 0
c p weight -1777 1 0
c p weight 1778 3.3333333333333337e-06 0
c p weight -1778 0.99999000000000005 0
c p weight 1779 1 0
c p weight -1779 1 0
c p weight 1780 1 0
c p weight -1780 1 0
c p weight 1781 3.3333333333333337e-06 0
c p weight -1781 0.99999000000000005 0
c p weight 1782 1 0
c p weight -1782 1 0
c p weight 1783 1 0
c p weight -1783 1 0
c p weight 1784 3.3333333333333337e-06 0
c p weight -1784 0.99999000000000005 0
c p weight 1785 1 0
c p weight -1785 1 0
c p weight 1786 1 0
c p weight -1786 1 0
c p weight 1787 3.3333333333333337e-06 0
c p weight -1787 0.99999000000000005 0
c p weight 1788 1 0
c p weight -1788 1 0
c p weight 1789 1 0
c p weight -1789 1 0
c p weight 1790 3.3333333333333337e-06 0
c p weight -1790 0.99999000000000005 0
c p weight 1791 1 0
c p weight -1791 1 0
c p weight 1792 1 0
c p weight -1792 1 0
c p weight 1793 3.3333333333333337e-06 0
c p weight -1793 0.99999000000000005 0
c p weight 1794 1 0
c p weight -1794 1 0
c p weight 1795 1 0
c p weight -1795 1 0
c p weight 1796 3.3333333333333337e-06 0
c p weight -1796 0.99999000000000005 0
c p weight 1797 1 0
c p weight -1797 1 0
c p weight 1798 1 0
c p weight -1798 1 0
c p weight 1799 3.3333333333333337e-06 0
c p weight -1799 0.99999000000000005 0
c p weight 1800 1 0
c p weight -1800 1 0
c p weight 1801 1 0
c p weight -1801 1 0
c p weight 1802 3.3333333333333337e-06 0
c p weight -1802 0.99999000000000005 0
c p weight 1803 1 0
c p weight -1803 1 0
c p weight 1804 1 0
c p weight -1804 1 0
c p weight 1805 3.3333333333333337e-06 0
c p weight -1805 0.99999000000000005 0
c p weight 1806 1 0
c p weight -1806 1 0
c p weight 1807 1 0
c p weight -1807 1 0
c p weight 1808 3.3333333333333337e-06 0
c p weight -1808 0.99999000000000005 0
c p weight 1809 1 0
c p weight -1809 1 0
c p weight 1810 1 0
c p weight -1810 1 0
c p weight 1811 6.6666666666666671e-07 0
c p weight -1811 0.99999000000000005 0
c p weight 1812 1 0
c p weight -1812 1 0
c p weight 1813 1 0
c p weight -1813 1 0
c p weight 1814 1 0
c p weight -1814 1 0
c p weight 1815 1 0
c p weight -1815 1 0
c p weight 1816 3.3333333333333337e-06 0
c p weight -1816 0.99999000000000005 0
c p weight 1817 1 0
c p weight -1817 1 0
c p weight 1818 1 0
c p weight -1818 1 0
c p weight 1819 3.3333333333333337e-06 0
c p weight -1819 0.99999000000000005 0
c p weight 1820 1 0
c p weight -1820 1 0
c p weight 1821 1 0
c p weight -1821 1 0
c p weight 1822 3.3333333333333337e-06 0
c p weight -1822 0.99999000000000005 0
c p weight 1823 1 0
c p weight -1823 1 0
c p weight 1824 1 0
c p weight -1824 1 0
c p weight 1825 3.3333333333333337e-06 0
c p weight -1825 0.99999000000000005 0
c p weight 1826 1 0
c p weight -1826 1 0
c p weight 1827 1 0
c p weight -1827 1 0
c p weight 1828 3.3333333333333337e-06 0
c p weight -1828 0.99999000000000005 0
c p weight 1829 1 0
c p weight -1829 1 0
c p weight 1830 1 0
c p weight -1830 1 0
c p weight 1831 3.3333333333333337e-06 0
c p weight -1831 0.99999000000000005 0
c p weight 1832 1 0
c p weight -1832 1 0
c p weight 1833 1 0
c p weight -1833 1 0
c p weight 1834 3.3333333333333337e-06 0
c p weight -1834 0.99999000000000005 0
c p weight 1835 1 0
c p weight -1835 1 0
c p weight 1836 1 0
c p weight -1836 1 0
c p weight 1837 3.3333333333333337e-06 0
c p weight -1837 0.99999000000000005 0
c p weight 1838 1 0
c p weight -1838 1 0
c p weight 1839 1 0
c p weight -1839 1 0
c p weight 1840 3.3333333333333337e-06 0
c p weight -1840 0.99999000000000005 0
c p weight 1841 1 0
c p weight -1841 1 0
c p weight 1842 1 0
c p weight -1842 1 0
c p weight 1843 3.3333333333333337e-06 0
c p weight -1843 0.99999000000000005 0
c p weight 1844 1 0
c p weight -1844 1 0
c p weight 1845 1 0
c p weight -1845 1 0
c p weight 1846 3.3333333333333337e-06 0
c p weight -1846 0.99999000000000005 0
c p weight 1847 1 0
c p weight -1847 1 0
c p weight 1848 1 0
c p weight -1848 1 0
c p weight 1849 3.3333333333333337e-06 0
c p weight -1849 0.99999000000000005 0
c p weight 1850 1 0
c p weight -1850 1 0
c p weight 1851 1 0
c p weight -1851 1 0
c p weight 1852 3.3333333333333337e-06 0
c p weight -1852 0.99999000000000005 0
c p weight 1853 1 0
c p weight -1853 1 0
c p weight 1854 1 0
c p weight -1854 1 0
c p weight 1855 3.3333333333333337e-06 0
c p weight -1855 0.99999000000000005 0
c p weight 1856 1 0
c p weight -1856 1 0
c p weight 1857 1 0
c p weight -1857 1 0
c p weight 1858 3.3333333333333337e-06 0
c p weight -1858 0.99999000000000005 0
c p weight 1859 1 0
c p weight -1859 1 0
c p weight 1860 1 0
c p weight -1860 1 0
c p weight 1861 3.3333333333333337e-06 0
c p weight -1861 0.99999000000000005 0
c p weight 1862 1 0
c p weight -1862 1 0
c p weight 1863 1 0
c p weight -1863 1 0
c p weight 1864 3.3333333333333337e-06 0
c p weight -1864 0.99999000000000005 0
c p weight 1865 1 0
c p weight -1865 1 0
c p weight 1866 1 0
c p weight -1866 1 0
c p weight 1867 3.3333333333333337e-06 0
c p weight -1867 0.99999000000000005 0
c p weight 1868 1 0
c p weight -1868 1 0
c p weight 1869 1 0
c p weight -1869 1 0
c p weight 1870 3.3333333333333337e-06 0
c p weight -1870 0.99999000000000005 0
c p weight 1871 1 0
c p weight -1871 1 0
c p weight 1872 1 0
c p weight -1872 1 0
c p weight 1873 6.6666666666666671e-07 0
c p weight -1873 0.99999000000000005 0
c p weight 1874 1 0
c p weight -1874 1 0
c p weight 1875 1 0
c p weight -1875 1 0
c p weight 1876 1 0
c p weight -1876 1 0
c p weight 1877 1 0
c p weight -1877 1 0
c p weight 1878 3.3333333333333337e-06 0
c p weight -1878 0.99999000000000005 0
c p weight 1879 1 0
c p weight -1879 1 0
c p weight 1880 1 0
c p weight -1880 1 0
c p weight 1881 3.3333333333333337e-06 0
c p weight -1881 0.99999000000000005 0
c p weight 1882 1 0
c p weight -1882 1 0
c p weight 1883 1 0
c p weight -1883 1 0
c p weight 1884 3.3333333333333337e-06 0
c p weight -1884 0.99999000000000005 0
c p weight 1885 1 0
c p weight -1885 1 0
c p weight 1886 1 0
c p weight -1886 1 0
c p weight 1887 3.3333333333333337e-06 0
c p weight -1887 0.99999000000000005 0
c p weight 1888 1 0
c p weight -1888 1 0
c p weight 1889 1 0
c p weight -1889 1 0
c p weight 1890 3.3333333333333337e-06 0
c p weight -1890 0.99999000000000005 0
c p weight 1891 1 0
c p weight -1891 1 0
c p weight 1892 1 0
c p weight -1892 1 0
c p weight 1893 3.3333333333333337e-06 0
c p weight -1893 0.99999000000000005 0
c p weight 1894 1 0
c p weight -1894 1 0
c p weight 1895 1 0
c p weight -1895 1 0
c p weight 1896 3.3333333333333337e-06 0
c p weight -1896 0.99999000000000005 0
c p weight 1897 1 0
c p weight -1897 1 0
c p weight 1898 1 0
c p weight -1898 1 0
c p weight 1899 3.3333333333333337e-06 0
c p weight -1899 0.99999000000000005 0
c p weight 1900 1 0
c p weight -1900 1 0
c p weight 1901 1 0
c p weight -1901 1 0
c p weight 1902 3.3333333333333337e-06 0
c p weight -1902 0.99999000000000005 0
c p weight 1903 1 0
c p weight -1903 1 0
c p weight 1904 1 0
c p weight -1904 1 0
c p weight 1905 3.3333333333333337e-06 0
c p weight -1905 0.99999000000000005 0
c p weight 1906 1 0
c p weight -1906 1 0
c p weight 1907 1 0
c p weight -1907 1 0
c p weight 1908 3.3333333333333337e-06 0
c p weight -1908 0.99999000000000005 0
c p weight 1909 1 0
c p weight -1909 1 0
c p weight 1910 1 0
c p weight -1910 1 0
c p weight 1911 3.3333333333333337e-06 0
c p weight -1911 0.99999000000000005 0
c p weight 1912 1 0
c p weight -1912 1 0
c p weight 1913 1 0
c p weight -1913 1 0
c p weight 1914 3.3333333333333337e-06 0
c p weight -1914 0.99999000000000005 0
c p weight 1915 1 0
c p weight -1915 1 0
c p weight 1916 1 0
c p weight -1916 1 0
c p weight 1917 3.3333333333333337e-06 0
c p weight -1917 0.99999000000000005 0
c p weight 1918 1 0
c p weight -1918 1 0
c p weight 1919 1 0
c p weight -1919 1 0
c p weight 1920 3.3333333333333337e-06 0
c p weight -1920 0.99999000000000005 0
c p weight 1921 1 0
c p weight -1921 1 0
c p weight 1922 1 0
c p weight -1922 1 0
c p weight 1923 3.3333333333333337e-06 0
c p weight -1923 0.99999000000000005 0
c p weight 1924 1 0
c p weight -1924 1 0
c p weight 1925 1 0
c p weight -1925 1 0
c p weight 1926 3.3333333333333337e-06 0
c p weight -1926 0.99999000000000005 0
c p weight 1927 1 0
c p weight -1927 1 0
c p weight 1928 1 0
c p weight -1928 1 0
c p weight 1929 3.3333333333333337e-06 0
c p weight -1929 0.99999000000000005 0
c p weight 1930 1 0
c p weight -1930 1 0
c p weight 1931 1 0
c p weight -1931 1 0
c p weight 1932 3.3333333333333337e-06 0
c p weight -1932 0.99999000000000005 0
c p weight 1933 1 0
c p weight -1933 1 0
c p weight 1934 1 0
c p weight -1934 1 0
c p weight 1935 6.6666666666666671e-07 0
c p weight -1935 0.99999000000000005 0
c p weight 1936 1 0
c p weight -1936 1 0
c p weight 1937 1 0
c p weight -1937 1 0
c p weight 1938 1 0
c p weight -1938 1 0
c p weight 1939 1 0
c p weight -1939 1 0
c p weight 1940 3.3333333333333337e-06 0
c p weight -1940 0.99999000000000005 0
c p weight 1941 1 0
c p weight -1941 1 0
c p weight 1942 1 0
c p weight -1942 1 0
c p weight 1943 3.3333333333333337e-06 0
c p weight -1943 0.99999000000000005 0
c p weight 1944 1 0
c p weight -1944 1 0
c p weight 1945 1 0
c p weight -1945 1 0
c p weight 1946 3.3333333333333337e-06 0
c p weight -1946 0.99999000000000005 0
c p weight 1947 1 0
c p weight -1947 1 0
c p weight 1948 1 0
c p weight -1948 1 0
c p weight 1949 3.3333333333333337e-06 0
c p weight -1949 0.99999000000000005 0
c p weight 1950 1 0
c p weight -1950 1 0
c p weight 1951 1 0
c p weight -1951 1 0
c p weight 1952 3.3333333333333337e-06 0
c p weight -1952 0.99999000000000005 0
c p weight 1953 1 0
c p weight -1953 1 0
c p weight 1954 1 0
c p weight -1954 1 0
c p weight 1955 3.3333333333333337e-06 0
c p weight -1955 0.99999000000000005 0
c p weight 1956 1 0
c p weight -1956 1 0
c p weight 1957 1 0
c p weight -1957 1 0
c p weight 1958 3.3333333333333337e-06 0
c p weight -1958 0.99999000000000005 0
c p weight 1959 1 0
c p weight -1959 1 0
c p weight 1960 1 0
c p weight -1960 1 0
c p weight 1961 3.3333333333333337e-06 0
c p weight -1961 0.99999000000000005 0
c p weight 1962 1 0
c p weight -1962 1 0
c p weight 1963 1 0
c p weight -1963 1 0
c p weight 1964 3.3333333333333337e-06 0
c p weight -1964 0.99999000000000005 0
c p weight 1965 1 0
c p weight -1965 1 0
c p weight 1966 1 0
c p weight -1966 1 0
c p weight 1967 3.3333333333333337e-06 0
c p weight -1967 0.99999000000000005 0
c p weight 1968 1 0
c p weight -1968 1 0
c p weight 1969 1 0
c p weight -1969 1 0
c p weight 1970 3.3333333333333337e-06 0
c p weight -1970 0.99999000000000005 0
c p weight 1971 1 0
c p weight -1971 1 0
c p weight 1972 1 0
c p weight -1972 1 0
c p weight 1973 3.3333333333333337e-06 0
c p weight -1973 0.99999000000000005 0
c p weight 1974 1 0
c p weight -1974 1 0
c p weight 1975 1 0
c p weight -1975 1 0
c p weight 1976 3.3333333333333337e-06 0
c p weight -1976 0.99999000000000005 0
c p weight 1977 1 0
c p weight -1977 1 0
c p weight 1978 1 0
c p weight -1978 1 0
c p weight 1979 3.3333333333333337e-06 0
c p weight -1979 0.99999000000000005 0
c p weight 1980 1 0
c p weight -1980 1 0
c p weight 1981 1 0
c p weight -1981 1 0
c p weight 1982 3.3333333333333337e-06 0
c p weight -1982 0.99999000000000005 0
c p weight 1983 1 0
c p weight -1983 1 0
c p weight 1984 1 0
c p weight -1984 1 0
c p weight 1985 3.3333333333333337e-06 0
c p weight -1985 0.99999000000000005 0
c p weight 1986 1 0
c p weight -1986 1 0
c p weight 1987 1 0
c p weight -1987 1 0
c p weight 1988 3.3333333333333337e-06 0
c p weight -1988 0.99999000000000005 0
c p weight 1989 1 0
c p weight -1989 1 0
c p weight 1990 1 0
c p weight -1990 1 0
c p weight 1991 3.3333333333333337e-06 0
c p weight -1991 0.99999000000000005 0
c p weight 1992 1 0
c p weight -1992 1 0
c p weight 1993 1 0
c p weight -1993 1 0
c p weight 1994 3.3333333333333337e-06 0
c p weight -1994 0.99999000000000005 0
c p weight 1995 1 0
c p weight -1995 1 0
c p weight 1996 1 0
c p weight -1996 1 0
c p weight 1997 3.3333333333333337e-06 0
c p weight -1997 0.99999000000000005 0
c p weight 1998 1 0
c p weight -1998 1 0
c p weight 1999 1 0
c p weight -1999 1 0
c p weight 2000 3.3333333333333337e-06 0
c p weight -2000 0.99999000000000005 0
c p weight 2001 1 0
c p weight -2001 1 0
c p weight 2002 1 0
c p weight -2002 1 0
c p weight 2003 3.3333333333333337e-06 0
c p weight -2003 0.99999000000000005 0
c p weight 2004 1 0
c p weight -2004 1 0
c p weight 2005 1 0
c p weight -2005 1 0
c p weight 2006 3.3333333333333337e-06 0
c p weight -2006 0.99999000000000005 0
c p weight 2007 1 0
c p weight -2007 1 0
c p weight 2008 1 0
c p weight -2008 1 0
c p weight 2009 3.3333333333333337e-06 0
c p weight -2009 0.99999000000000005 0
c p weight 2010 1 0
c p weight -2010 1 0
c p weight 2011 1 0
c p weight -2011 1 0
c p weight 2012 3.3333333333333337e-06 0
c p weight -2012 0.99999000000000005 0
c p weight 2013 1 0
c p weight -2013 1 0
c p weight 2014 1 0
c p weight -2014 1 0
c p weight 2015 3.3333333333333337e-06 0
c p weight -2015 0.99999000000000005 0
c p weight 2016 1 0
c p weight -2016 1 0
c p weight 2017 1 0
c p weight -2017 1 0
c p weight 2018 3.3333333333333337e-06 0
c p weight -2018 0.99999000000000005 0
c p weight 2019 1 0
c p weight -2019 1 0
c p weight 2020 1 0
c p weight -2020 1 0
c p weight 2021 3.3333333333333337e-06 0
c p weight -2021 0.99999000000000005 0
c p weight 2022 1 0
c p weight -2022 1 0
c p weight 2023 1 0
c p weight -2023 1 0
c p weight 2024 3.3333333333333337e-06 0
c p weight -2024 0.99999000000000005 0
c p weight 2025 1 0
c p weight -2025 1 0
c p weight 2026 1 0
c p weight -2026 1 0
c p weight 2027 3.3333333333333337e-06 0
c p weight -2027 0.99999000000000005 0
c p weight 2028 1 0
c p weight -2028 1 0
c p weight 2029 1 0
c p weight -2029 1 0
c p weight 2030 3.3333333333333337e-06 0
c p weight -2030 0.99999000000000005 0
c p weight 2031 1 0
c p weight -2031 1 0
c p weight 2032 1 0
c p weight -2032 1 0
c p weight 2033 6.6666666666666675e-06 0
c p weight -2033 0.99999333333333329 0
c p weight 2034 6.6666666666666675e-06 0
c p weight -2034 0.99999333333333329 0
c p weight 2035 6.6666666666666675e-06 0
c p weight -2035 0.99999333333333329 0
c p weight 2036 6.6666666666666675e-06 0
c p weight -2036 0.99999333333333329 0
c p weight 2037 6.6666666666666675e-06 0
c p weight -2037 0.99999333333333329 0
c p weight 2038 6.6666666666666675e-06 0
c p weight -2038 0.99999333333333329 0
c p weight 2039 6.6666666666666675e-06 0
c p weight -2039 0.99999333333333329 0
c p weight 2040 6.6666666666666675e-06 0
c p weight -2040 0.99999333333333329 0
c p weight 2041 6.6666666666666675e-06 0
c p weight -2041 0.99999333333333329 0
c p weight 2042 6.6666666666666675e-06 0
c p weight -2042 0.99999333333333329 0
c p weight 2043 6.6666666666666675e-06 0
c p weight -2043 0.99999333333333329 0
c p weight 2044 6.6666666666666675e-06 0
c p weight -2044 0.99999333333333329 0
c p weight 2045 6.6666666666666671e-07 0
c p weight -2045 0.99999000000000005 0
c p weight 2046 1 0
c p weight -2046 1 0
c p weight 2047 1 0
c p weight -2047 1 0
c p weight 2048 1 0
c p weight -2048 1 0
c p weight 2049 1 0
c p weight -2049 1 0
c p weight 2050 3.3333333333333337e-06 0
c p weight -2050 0.99999000000000005 0
c p weight 2051 1 0
c p weight -2051 1 0
c p weight 2052 1 0
c p weight -2052 1 0
c p weight 2053 3.3333333333333337e-06 0
c p weight -2053 0.99999000000000005 0
c p weight 2054 1 0
c p weight -2054 1 0
c p weight 2055 1 0
c p weight -2055 1 0
c p weight 2056 3.3333333333333337e-06 0
c p weight -2056 0.99999000000000005 0
c p weight 2057 1 0
c p weight -2057 1 0
c p weight 2058 1 0
c p weight -2058 1 0
c p weight 2059 3.3333333333333337e-06 0
c p weight -2059 0.99999000000000005 0
c p weight 2060 1 0
c p weight -2060 1 0
c p weight 2061 1 0
c p weight -2061 1 0
c p weight 2062 3.3333333333333337e-06 0
c p weight -2062 0.99999000000000005 0
c p weight 2063 1 0
c p weight -2063 1 0
c p weight 2064 1 0
c p weight -2064 1 0
c p weight 2065 3.3333333333333337e-06 0
c p weight -2065 0.99999000000000005 0
c p weight 2066 1 0
c p weight -2066 1 0
c p weight 2067 1 0
c p weight -2067 1 0
c p weight 2068 3.3333333333333337e-06 0
c p weight -2068 0.99999000000000005 0
c p weight 2069 1 0
c p weight -2069 1 0
c p weight 2070 1 0
c p weight -2070 1 0
c p weight 2071 3.3333333333333337e-06 0
c p weight -2071 0.99999000000000005 0
c p weight 2072 1 0
c p weight -2072 1 0
c p weight 2073 1 0
c p weight -2073 1 0
c p weight 2074 3.3333333333333337e-06 0
c p weight -2074 0.99999000000000005 0
c p weight 2075 1 0
c p weight -2075 1 0
c p weight 2076 1 0
c p weight -2076 1 0
c p weight 2077 3.3333333333333337e-06 0
c p weight -2077 0.99999000000000005 0
c p weight 2078 1 0
c p weight -2078 1 0
c p weight 2079 1 0
c p weight -2079 1 0
c p weight 2080 3.3333333333333337e-06 0
c p weight -2080 0.99999000000000005 0
c p weight 2081 1 0
c p weight -2081 1 0
c p weight 2082 1 0
c p weight -2082 1 0
c p weight 2083 3.3333333333333337e-06 0
c p weight -2083 0.99999000000000005 0
c p weight 2084 1 0
c p weight -2084 1 0
c p weight 2085 1 0
c p weight -2085 1 0
c p weight 2086 3.3333333333333337e-06 0
c p weight -2086 0.99999000000000005 0
c p weight 2087 1 0
c p weight -2087 1 0
c p weight 2088 1 0
c p weight -2088 1 0
c p weight 2089 3.3333333333333337e-06 0
c p weight -2089 0.99999000000000005 0
c p weight 2090 1 0
c p weight -2090 1 0
c p weight 2091 1 0
c p weight -2091 1 0
c p weight 2092 3.3333333333333337e-06 0
c p weight -2092 0.99999000000000005 0
c p weight 2093 1 0
c p weight -2093 1 0
c p weight 2094 1 0
c p weight -2094 1 0
c p weight 2095 3.3333333333333337e-06 0
c p weight -2095 0.99999000000000005 0
c p weight 2096 1 0
c p weight -2096 1 0
c p weight 2097 1 0
c p weight -2097 1 0
c p weight 2098 3.3333333333333337e-06 0
c p weight -2098 0.99999000000000005 0
c p weight 2099 1 0
c p weight -2099 1 0
c p weight 2100 1 0
c p weight -2100 1 0
c p weight 2101 3.3333333333333337e-06 0
c p weight -2101 0.99999000000000005 0
c p weight 2102 1 0
c p weight -2102 1 0
c p weight 2103 1 0
c p weight -2103 1 0
c p weight 2104 3.3333333333333337e-06 0
c p weight -2104 0.99999000000000005 0
c p weight 2105 1 0
c p weight -2105 1 0
c p weight 2106 1 0
c p weight -2106 1 0
c p weight 2107 6.6666666666666671e-07 0
c p weight -2107 0.99999000000000005 0
c p weight 2108 1 0
c p weight -2108 1 0
c p weight 2109 1 0
c p weight -2109 1 0
c p weight 2110 1 0
c p weight -2110 1 0
c p weight 2111 1 0
c p weight -2111 1 0
c p weight 2112 3.3333333333333337e-06 0
c p weight -2112 0.99999000000000005 0
c p weight 2113 1 0
c p weight -2113 1 0
c p weight 2114 1 0
c p weight -2114 1 0
c p weight 2115 3.3333333333333337e-06 0
c p weight -2115 0.99999000000000005 0
c p weight 2116 1 0
c p weight -2116 1 0
c p weight 2117 1 0
c p weight -2117 1 0
c p weight 2118 3.3333333333333337e-06 0
c p weight -2118 0.99999000000000005 0
c p weight 2119 1 0
c p weight -2119 1 0
c p weight 2120 1 0
c p weight -2120 1 0
c p weight 2121 3.3333333333333337e-06 0
c p weight -2121 0.99999000000000005 0
c p weight 2122 1 0
c p weight -2122 1 0
c p weight 2123 1 0
c p weight -2123 1 0
c p weight 2124 3.3333333333333337e-06 0
c p weight -2124 0.99999000000000005 0
c p weight 2125 1 0
c p weight -2125 1 0
c p weight 2126 1 0
c p weight -2126 1 0
c p weight 2127 3.3333333333333337e-06 0
c p weight -2127 0.99999000000000005 0
c p weight 2128 1 0
c p weight -2128 1 0
c p weight 2129 1 0
c p weight -2129 1 0
c p weight 2130 3.3333333333333337e-06 0
c p weight -2130 0.99999000000000005 0
c p weight 2131 1 0
c p weight -2131 1 0
c p weight 2132 1 0
c p weight -2132 1 0
c p weight 2133 3.3333333333333337e-06 0
c p weight -2133 0.99999000000000005 0
c p weight 2134 1 0
c p weight -2134 1 0
c p weight 2135 1 0
c p weight -2135 1 0
c p weight 2136 3.3333333333333337e-06 0
c p weight -2136 0.99999000000000005 0
c p weight 2137 1 0
c p weight -2137 1 0
c p weight 2138 1 0
c p weight -2138 1 0
c p weight 2139 3.3333333333333337e-06 0
c p weight -2139 0.99999000000000005 0
c p weight 2140 1 0
c p weight -2140 1 0
c p weight 2141 1 0
c p weight -2141 1 0
c p weight 2142 3.3333333333333337e-06 0
c p weight -2142 0.99999000000000005 0
c p weight 2143 1 0
c p weight -2143 1 0
c p weight 2144 1 0
c p weight -2144 1 0
c p weight 2145 3.3333333333333337e-06 0
c p weight -2145 0.99999000000000005 0
c p weight 2146 1 0
c p weight -2146 1 0
c p weight 2147 1 0
c p weight -2147 1 0
c p weight 2148 3.3333333333333337e-06 0
c p weight -2148 0.99999000000000005 0
c p weight 2149 1 0
c p weight -2149 1 0
c p weight 2150 1 0
c p weight -2150 1 0
c p weight 2151 3.3333333333333337e-06 0
c p weight -2151 0.99999000000000005 0
c p weight 2152 1 0
c p weight -2152 1 0
c p weight 2153 1 0
c p weight -2153 1 0
c p weight 2154 3.3333333333333337e-06 0
c p weight -2154 0.99999000000000005 0
c p weight 2155 1 0
c p weight -2155 1 0
c p weight 2156 1 0
c p weight -2156 1 0
c p weight 2157 3.3333333333333337e-06 0
c p weight -2157 0.99999000000000005 0
c p weight 2158 1 0
c p weight -2158 1 0
c p weight 2159 1 0
c p weight -2159 1 0
c p weight 2160 3.3333333333333337e-06 0
c p weight -2160 0.99999000000000005 0
c p weight 2161 1 0
c p weight -2161 1 0
c p weight 2162 1 0
c p weight -2162 1 0
c p weight 2163 3.3333333333333337e-06 0
c p weight -2163 0.99999000000000005 0
c p weight 2164 1 0
c p weight -2164 1 0
c p weight 2165 1 0
c p weight -2165 1 0
c p weight 2166 3.3333333333333337e-06 0
c p weight -2166 0.99999000000000005 0
c p weight 2167 1 0
c p weight -2167 1 0
c p weight 2168 1 0
c p weight -2168 1 0
c p weight 2169 6.6666666666666671e-07 0
c p weight -2169 0.99999000000000005 0
c p weight 2170 1 0
c p weight -2170 1 0
c p weight 2171 1 0
c p weight -2171 1 0
c p weight 2172 1 0
c p weight -2172 1 0
c p weight 2173 1 0
c p weight -2173 1 0
c p weight 2174 3.3333333333333337e-06 0
c p weight -2174 0.99999000000000005 0
c p weight 2175 1 0
c p weight -2175 1 0
c p weight 2176 1 0
c p weight -2176 1 0
c p weight 2177 3.3333333333333337e-06 0
c p weight -2177 0.99999000000000005 0
c p weight 2178 1 0
c p weight -2178 1 0
c p weight 2179 1 0
c p weight -2179 1 0
c p weight 2180 3.3333333333333337e-06 0
c p weight -2180 0.99999000000000005 0
c p weight 2181 1 0
c p weight -2181 1 0
c p weight 2182 1 0
c p weight -2182 1 0
c p weight 2183 3.3333333333333337e-06 0
c p weight -2183 0.99999000000000005 0
c p weight 2184 1 0
c p weight -2184 1 0
c p weight 2185 1 0
c p weight -2185 1 0
c p weight 2186 3.3333333333333337e-06 0
c p weight -2186 0.99999000000000005 0
c p weight 2187 1 0
c p weight -2187 1 0
c p weight 2188 1 0
c p weight -2188 1 0
c p weight 2189 3.3333333333333337e-06 0
c p weight -2189 0.99999000000000005 0
c p weight 2190 1 0
c p weight -2190 1 0
c p weight 2191 1 0
c p weight -2191 1 0
c p weight 2192 3.3333333333333337e-06 0
c p weight -2192 0.99999000000000005 0
c p weight 2193 1 0
c p weight -2193 1 0
c p weight 2194 1 0
c p weight -2194 1 0
c p weight 2195 3.3333333333333337e-06 0
c p weight -2195 0.99999000000000005 0
c p weight 2196 1 0
c p weight -2196 1 0
c p weight 2197 1 0
c p weight -2197 1 0
c p weight 2198 3.3333333333333337e-06 0
c p weight -2198 0.99999000000000005 0
c p weight 2199 1 0
c p weight -2199 1 0
c p weight 2200 1 0
c p weight -2200 1 0
c p weight 2201 3.3333333333333337e-06 0
c p weight -2201 0.99999000000000005 0
c p weight 2202 1 0
c p weight -2202 1 0
c p weight 2203 1 0
c p weight -2203 1 0
c p weight 2204 3.3333333333333337e-06 0
c p weight -2204 0.99999000000000005 0
c p weight 2205 1 0
c p weight -2205 1 0
c p weight 2206 1 0
c p weight -2206 1 0
c p weight 2207 3.3333333333333337e-06 0
c p weight -2207 0.99999000000000005 0
c p weight 2208 1 0
c p weight -2208 1 0
c p weight 2209 1 0
c p weight -2209 1 0
c p weight 2210 3.3333333333333337e-06 0
c p weight -2210 0.99999000000000005 0
c p weight 2211 1 0
c p weight -2211 1 0
c p weight 2212 1 0
c p weight -2212 1 0
c p weight 2213 3.3333333333333337e-06 0
c p weight -2213 0.99999000000000005 0
c p weight 2214 1 0
c p weight -2214 1 0
c p weight 2215 1 0
c p weight -2215 1 0
c p weight 2216 3.3333333333333337e-06 0
c p weight -2216 0.99999000000000005 0
c p weight 2217 1 0
c p weight -2217 1 0
c p weight 2218 1 0
c p weight -2218 1 0
c p weight 2219 3.3333333333333337e-06 0
c p weight -2219 0.99999000000000005 0
c p weight 2220 1 0
c p weight -2220 1 0
c p weight 2221 1 0
c p weight -2221 1 0
c p weight 2222 3.3333333333333337e-06 0
c p weight -2222 0.99999000000000005 0
c p weight 2223 1 0
c p weight -2223 1 0
c p weight 2224 1 0
c p weight -2224 1 0
c p weight 2225 3.3333333333333337e-06 0
c p weight -2225 0.99999000000000005 0
c p weight 2226 1 0
c p weight -2226 1 0
c p weight 2227 1 0
c p weight -2227 1 0
c p weight 2228 3.3333333333333337e-06 0
c p weight -2228 0.99999000000000005 0
c p weight 2229 1 0
c p weight -2229 1 0
c p weight 2230 1 0
c p weight -2230 1 0
c p weight 2231 6.6666666666666671e-07 0
c p weight -2231 0.99999000000000005 0
c p weight 2232 1 0
c p weight -2232 1 0
c p weight 2233 1 0
c p weight -2233 1 0
c p weight 2234 1 0
c p weight -2234 1 0
c p weight 2235 1 0
c p weight -2235 1 0
c p weight 2236 3.3333333333333337e-06 0
c p weight -2236 0.99999000000000005 0
c p weight 2237 1 0
c p weight -2237 1 0
c p weight 2238 1 0
c p weight -2238 1 0
c p weight 2239 3.3333333333333337e-06 0
c p weight -2239 0.99999000000000005 0
c p weight 2240 1 0
c p weight -2240 1 0
c p weight 2241 1 0
c p weight -2241 1 0
c p weight 2242 3.3333333333333337e-06 0
c p weight -2242 0.99999000000000005 0
c p weight 2243 1 0
c p weight -2243 1 0
c p weight 2244 1 0
c p weight -2244 1 0
c p weight 2245 3.3333333333333337e-06 0
c p weight -2245 0.99999000000000005 0
c p weight 2246 1 0
c p weight -2246 1 0
c p weight 2247 1 0
c p weight -2247 1 0
c p weight 2248 3.3333333333333337e-06 0
c p weight -2248 0.99999000000000005 0
c p weight 2249 1 0
c p weight -2249 1 0
c p weight 2250 1 0
c p weight -2250 1 0
c p weight 2251 3.3333333333333337e-06 0
c p weight -2251 0.99999000000000005 0
c p weight 2252 1 0
c p weight -2252 1 0
c p weight 2253 1 0
c p weight -2253 1 0
c p weight 2254 3.3333333333333337e-06 0
c p weight -2254 0.99999000000000005 0
c p weight 2255 1 0
c p weight -2255 1 0
c p weight 2256 1 0
c p weight -2256 1 0
c p weight 2257 3.3333333333333337e-06 0
c p weight -2257 0.99999000000000005 0
c p weight 2258 1 0
c p weight -2258 1 0
c p weight 2259 1 0
c p weight -2259 1 0
c p weight 2260 3.3333333333333337e-06 0
c p weight -2260 0.99999000000000005 0
c p weight 2261 1 0
c p weight -2261 1 0
c p weight 2262 1 0
c p weight -2262 1 0
c p weight 2263 3.3333333333333337e-06 0
c p weight -2263 0.99999000000000005 0
c p weight 2264 1 0
c p weight -2264 1 0
c p weight 2265 1 0
c p weight -2265 1 0
c p weight 2266 3.3333333333333337e-06 0
c p weight -2266 0.99999000000000005 0
c p weight 2267 1 0
c p weight -2267 1 0
c p weight 2268 1 0
c p weight -2268 1 0
c p weight 2269 3.3333333333333337e-06 0
c p weight -2269 0.99999000000000005 0
c p weight 2270 1 0
c p weight -2270 1 0
c p weight 2271 1 0
c p weight -2271 1 0
c p weight 2272 3.3333333333333337e-06 0
c p weight -2272 0.99999000000000005 0
c p weight 2273 1 0
c p weight -2273 1 0
c p weight 2274 1 0
c p weight -2274 1 0
c p weight 2275 3.3333333333333337e-06 0
c p weight -2275 0.99999000000000005 0
c p weight 2276 1 0
c p weight -2276 1 0
c p weight 2277 1 0
c p weight -2277 1 0
c p weight 2278 3.3333333333333337e-06 0
c p weight -2278 0.99999000000000005 0
c p weight 2279 1 0
c p weight -2279 1 0
c p weight 2280 1 0
c p weight -2280 1 0
c p weight 2281 3.3333333333333337e-06 0
c p weight -2281 0.99999000000000005 0
c p weight 2282 1 0
c p weight -2282 1 0
c p weight 2283 1 0
c p weight -2283 1 0
c p weight 2284 3.3333333333333337e-06 0
c p weight -2284 0.99999000000000005 0
c p weight 2285 1 0
c p weight -2285 1 0
c p weight 2286 1 0
c p weight -2286 1 0
c p weight 2287 3.3333333333333337e-06 0
c p weight -2287 0.99999000000000005 0
c p weight 2288 1 0
c p weight -2288 1 0
c p weight 2289 1 0
c p weight -2289 1 0
c p weight 2290 3.3333333333333337e-06 0
c p weight -2290 0.99999000000000005 0
c p weight 2291 1 0
c p weight -2291 1 0
c p weight 2292 1 0
c p weight -2292 1 0
c p weight 2293 6.6666666666666671e-07 0
c p weight -2293 0.99999000000000005 0
c p weight 2294 1 0
c p weight -2294 1 0
c p weight 2295 1 0
c p weight -2295 1 0
c p weight 2296 1 0
c p weight -2296 1 0
c p weight 2297 1 0
c p weight -2297 1 0
c p weight 2298 3.3333333333333337e-06 0
c p weight -2298 0.99999000000000005 0
c p weight 2299 1 0
c p weight -2299 1 0
c p weight 2300 1 0
c p weight -2300 1 0
c p weight 2301 3.3333333333333337e-06 0
c p weight -2301 0.99999000000000005 0
c p weight 2302 1 0
c p weight -2302 1 0
c p weight 2303 1 0
c p weight -2303 1 0
c p weight 2304 3.3333333333333337e-06 0
c p weight -2304 0.99999000000000005 0
c p weight 2305 1 0
c p weight -2305 1 0
c p weight 2306 1 0
c p weight -2306 1 0
c p weight 2307 3.3333333333333337e-06 0
c p weight -2307 0.99999000000000005 0
c p weight 2308 1 0
c p weight -2308 1 0
c p weight 2309 1 0
c p weight -2309 1 0
c p weight 2310 3.3333333333333337e-06 0
c p weight -2310 0.99999000000000005 0
c p weight 2311 1 0
c p weight -2311 1 0
c p weight 2312 1 0
c p weight -2312 1 0
c p weight 2313 3.3333333333333337e-06 0
c p weight -2313 0.99999000000000005 0
c p weight 2314 1 0
c p weight -2314 1 0
c p weight 2315 1 0
c p weight -2315 1 0
c p weight 2316 3.3333333333333337e-06 0
c p weight -2316 0.99999000000000005 0
c p weight 2317 1 0
c p weight -2317 1 0
c p weight 2318 1 0
c p weight -2318 1 0
c p weight 2319 3.3333333333333337e-06 0
c p weight -2319 0.99999000000000005 0
c p weight 2320 1 0
c p weight -2320 1 0
c p weight 2321 1 0
c p weight -2321 1 0
c p weight 2322 3.3333333333333337e-06 0
c p weight -2322 0.99999000000000005 0
c p weight 2323 1 0
c p weight -2323 1 0
c p weight 2324 1 0
c p weight -2324 1 0
c p weight 2325 3.3333333333333337e-06 0
c p weight -2325 0.99999000000000005 0
c p weight 2326 1 0
c p weight -2326 1 0
c p weight 2327 1 0
c p weight -2327 1 0
c p weight 2328 3.3333333333333337e-06 0
c p weight -2328 0.99999000000000005 0
c p weight 2329 1 0
c p weight -2329 1 0
c p weight 2330 1 0
c p weight -2330 1 0
c p weight 2331 3.3333333333333337e-06 0
c p weight -2331 0.99999000000000005 0
c p weight 2332 1 0
c p weight -2332 1 0
c p weight 2333 1 0
c p weight -2333 1 0
c p weight 2334 3.3333333333333337e-06 0
c p weight -2334 0.99999000000000005 0
c p weight 2335 1 0
c p weight -2335 1 0
c p weight 2336 1 0
c p weight -2336 1 0
c p weight 2337 3.3333333333333337e-06 0
c p weight -2337 0.99999000000000005 0
c p weight 2338 1 0
c p weight -2338 1 0
c p weight 2339 1 0
c p weight -2339 1 0
c p weight 2340 3.3333333333333337e-06 0
c p weight -2340 0.99999000000000005 0
c p weight 2341 1 0
c p weight -2341 1 0
c p weight 2342 1 0
c p weight -2342 1 0
c p weight 2343 3.3333333333333337e-06 0
c p weight -2343 0.99999000000000005 0
c p weight 2344 1 0
c p weight -2344 1 0
c p weight 2345 1 0
c p weight -2345 1 0
c p weight 2346 3.3333333333333337e-06 0
c p weight -2346 0.99999000000000005 0
c p weight 2347 1 0
c p weight -2347 1 0
c p weight 2348 1 0
c p weight -2348 1 0
c p weight 2349 3.3333333333333337e-06 0
c p weight -2349 0.99999000000000005 0
c p weight 2350 1 0
c p weight -2350 1 0
c p weight 2351 1 0
c p weight -2351 1 0
c p weight 2352 3.3333333333333337e-06 0
c p weight -2352 0.99999000000000005 0
c p weight 2353 1 0
c p weight -2353 1 0
c p weight 2354 1 0
c p weight -2354 1 0
c p weight 2355 6.6666666666666671e-07 0
c p weight -2355 0.99999000000000005 0
c p weight 2356 1 0
c p weight -2356 1 0
c p weight 2357 1 0
c p weight -2357 1 0
c p weight 2358 1 0
c p weight -2358 1 0
c p weight 2359 1 0
c p weight -2359 1 0
c p weight 2360 3.3333333333333337e-06 0
c p weight -2360 0.99999000000000005 0
c p weight 2361 1 0
c p weight -2361 1 0
c p weight 2362 1 0
c p weight -2362 1 0
c p weight 2363 3.3333333333333337e-06 0
c p weight -2363 0.99999000000000005 0
c p weight 2364 1 0
c p weight -2364 1 0
c p weight 2365 1 0
c p weight -2365 1 0
c p weight 2366 3.3333333333333337e-06 0
c p weight -2366 0.99999000000000005 0
c p weight 2367 1 0
c p weight -2367 1 0
c p weight 2368 1 0
c p weight -2368 1 0
c p weight 2369 3.3333333333333337e-06 0
c p weight -2369 0.99999000000000005 0
c p weight 2370 1 0
c p weight -2370 1 0
c p weight 2371 1 0
c p weight -2371 1 0
c p weight 2372 3.3333333333333337e-06 0
c p weight -2372 0.99999000000000005 0
c p weight 2373 1 0
c p weight -2373 1 0
c p weight 2374 1 0
c p weight -2374 1 0
c p weight 2375 3.3333333333333337e-06 0
c p weight -2375 0.99999000000000005 0
c p weight 2376 1 0
c p weight -2376 1 0
c p weight 2377 1 0
c p weight -2377 1 0
c p weight 2378 3.3333333333333337e-06 0
c p weight -2378 0.99999000000000005 0
c p weight 2379 1 0
c p weight -2379 1 0
c p weight 2380 1 0
c p weight -2380 1 0
c p weight 2381 3.3333333333333337e-06 0
c p weight -2381 0.99999000000000005 0
c p weight 2382 1 0
c p weight -2382 1 0
c p weight 2383 1 0
c p weight -2383 1 0
c p weight 2384 3.3333333333333337e-06 0
c p weight -2384 0.99999000000000005 0
c p weight 2385 1 0
c p weight -2385 1 0
c p weight 2386 1 0
c p weight -2386 1 0
c p weight 2387 3.3333333333333337e-06 0
c p weight -2387 0.99999000000000005 0
c p weight 2388 1 0
c p weight -2388 1 0
c p weight 2389 1 0
c p weight -2389 1 0
c p weight 2390 3.3333333333333337e-06 0
c p weight -2390 0.99999000000000005 0
c p weight 2391 1 0
c p weight -2391 1 0
c p weight 2392 1 0
c p weight -2392 1 0
c p weight 2393 3.3333333333333337e-06 0
c p weight -2393 0.99999000000000005 0
c p weight 2394 1 0
c p weight -2394 1 0
c p weight 2395 1 0
c p weight -2395 1 0
c p weight 2396 3.3333333333333337e-06 0
c p weight -2396 0.99999000000000005 0
c p weight 2397 1 0
c p weight -2397 1 0
c p weight 2398 1 0
c p weight -2398 1 0
c p weight 2399 3.3333333333333337e-06 0
c p weight -2399 0.99999000000000005 0
c p weight 2400 1 0
c p weight -2400 1 0
c p weight 2401 1 0
c p weight -2401 1 0
c p weight 2402 3.3333333333333337e-06 0
c p weight -2402 0.99999000000000005 0
c p weight 2403 1 0
c p weight -2403 1 0
c p weight 2404 1 0
c p weight -2404 1 0
c p weight 2405 3.3333333333333337e-06 0
c p weight -2405 0.99999000000000005 0
c p weight 2406 1 0
c p weight -2406 1 0
c p weight 2407 1 0
c p weight -2407 1 0
c p weight 2408 3.3333333333333337e-06 0
c p weight -2408 0.99999000000000005 0
c p weight 2409 1 0
c p weight -2409 1 0
c p weight 2410 1 0
c p weight -2410 1 0
c p weight 2411 3.3333333333333337e-06 0
c p weight -2411 0.99999000000000005 0
c p weight 2412 1 0
c p weight -2412 1 0
c p weight 2413 1 0
c p weight -2413 1 0
c p weight 2414 3.3333333333333337e-06 0
c p weight -2414 0.99999000000000005 0
c p weight 2415 1 0
c p weight -2415 1 0
c p weight 2416 1 0
c p weight -2416 1 0
c p weight 2417 6.6666666666666671e-07 0
c p weight -2417 0.99999000000000005 0
c p weight 2418 1 0
c p weight -2418 1 0
c p weight 2419 1 0
c p weight -2419 1 0
c p weight 2420 1 0
c p weight -2420 1 0
c p weight 2421 1 0
c p weight -2421 1 0
c p weight 2422 3.3333333333333337e-06 0
c p weight -2422 0.99999000000000005 0
c p weight 2423 1 0
c p weight -2423 1 0
c p weight 2424 1 0
c p weight -2424 1 0
c p weight 2425 3.3333333333333337e-06 0
c p weight -2425 0.99999000000000005 0
c p weight 2426 1 0
c p weight -2426 1 0
c p weight 2427 1 0
c p weight -2427 1 0
c p weight 2428 3.3333333333333337e-06 0
c p weight -2428 0.99999000000000005 0
c p weight 2429 1 0
c p weight -2429 1 0
c p weight 2430 1 0
c p weight -2430 1 0
c p weight 2431 3.3333333333333337e-06 0
c p weight -2431 0.99999000000000005 0
c p weight 2432 1 0
c p weight -2432 1 0
c p weight 2433 1 0
c p weight -2433 1 0
c p weight 2434 3.3333333333333337e-06 0
c p weight -2434 0.99999000000000005 0
c p weight 2435 1 0
c p weight -2435 1 0
c p weight 2436 1 0
c p weight -2436 1 0
c p weight 2437 3.3333333333333337e-06 0
c p weight -2437 0.99999000000000005 0
c p weight 2438 1 0
c p weight -2438 1 0
c p weight 2439 1 0
c p weight -2439 1 0
c p weight 2440 3.3333333333333337e-06 0
c p weight -2440 0.99999000000000005 0
c p weight 2441 1 0
c p weight -2441 1 0
c p weight 2442 1 0
c p weight -2442 1 0
c p weight 2443 3.3333333333333337e-06 0
c p weight -2443 0.99999000000000005 0
c p weight 2444 1 0
c p weight -2444 1 0
c p weight 2445 1 0
c p weight -2445 1 0
c p weight 2446 3.3333333333333337e-06 0
c p weight -2446 0.99999000000000005 0
c p weight 2447 1 0
c p weight -2447 1 0
c p weight 2448 1 0
c p weight -2448 1 0
c p weight 2449 3.3333333333333337e-06 0
c p weight -2449 0.99999000000000005 0
c p weight 2450 1 0
c p weight -2450 1 0
c p weight 2451 1 0
c p weight -2451 1 0
c p weight 2452 3.3333333333333337e-06 0
c p weight -2452 0.99999000000000005 0
c p weight 2453 1 0
c p weight -2453 1 0
c p weight 2454 1 0
c p weight -2454 1 0
c p weight 2455 3.3333333333333337e-06 0
c p weight -2455 0.99999000000000005 0
c p weight 2456 1 0
c p weight -2456 1 0
c p weight 2457 1 0
c p weight -2457 1 0
c p weight 2458 3.3333333333333337e-06 0
c p weight -2458 0.99999000000000005 0
c p weight 2459 1 0
c p weight -2459 1 0
c p weight 2460 1 0
c p weight -2460 1 0
c p weight 2461 3.3333333333333337e-06 0
c p weight -2461 0.99999000000000005 0
c p weight 2462 1 0
c p weight -2462 1 0
c p weight 2463 1 0
c p weight -2463 1 0
c p weight 2464 3.3333333333333337e-06 0
c p weight -2464 0.99999000000000005 0
c p weight 2465 1 0
c p weight -2465 1 0
c p weight 2466 1 0
c p weight -2466 1 0
c p weight 2467 3.3333333333333337e-06 0
c p weight -2467 0.99999000000000005 0
c p weight 2468 1 0
c p weight -2468 1 0
c p weight 2469 1 0
c p weight -2469 1 0
c p weight 2470 3.3333333333333337e-06 0
c p weight -2470 0.99999000000000005 0
c p weight 2471 1 0
c p weight -2471 1 0
c p weight 2472 1 0
c p weight -2472 1 0
c p weight 2473 3.3333333333333337e-06 0
c p weight -2473 0.99999000000000005 0
c p weight 2474 1 0
c p weight -2474 1 0
c p weight 2475 1 0
c p weight -2475 1 0
c p weight 2476 3.3333333333333337e-06 0
c p weight -2476 0.99999000000000005 0
c p weight 2477 1 0
c p weight -2477 1 0
c p weight 2478 1 0
c p weight -2478 1 0
c p weight 2479 6.6666666666666671e-07 0
c p weight -2479 0.99999000000000005 0
c p weight 2480 1 0
c p weight -2480 1 0
c p weight 2481 1 0
c p weight -2481 1 0
c p weight 2482 1 0
c p weight -2482 1 0
c p weight 2483 1 0
c p weight -2483 1 0
c p weight 2484 3.3333333333333337e-06 0
c p weight -2484 0.99999000000000005 0
c p weight 2485 1 0
c p weight -2485 1 0
c p weight 2486 1 0
c p weight -2486 1 0
c p weight 2487 3.3333333333333337e-06 0
c p weight -2487 0.99999000000000005 0
c p weight 2488 1 0
c p weight -2488 1 0
c p weight 2489 1 0
c p weight -2489 1 0
c p weight 2490 3.3333333333333337e-06 0
c p weight -2490 0.99999000000000005 0
c p weight 2491 1 0
c p weight -2491 1 0
c p weight 2492 1 0
c p weight -2492 1 0
c p weight 2493 3.3333333333333337e-06 0
c p weight -2493 0.99999000000000005 0
c p weight 2494 1 0
c p weight -2494 1 0
c p weight 2495 1 0
c p weight -2495 1 0
c p weight 2496 3.3333333333333337e-06 0
c p weight -2496 0.99999000000000005 0
c p weight 2497 1 0
c p weight -2497 1 0
c p weight 2498 1 0
c p weight -2498 1 0
c p weight 2499 3.3333333333333337e-06 0
c p weight -2499 0.99999000000000005 0
c p weight 2500 1 0
c p weight -2500 1 0
c p weight 2501 1 0
c p weight -2501 1 0
c p weight 2502 3.3333333333333337e-06 0
c p weight -2502 0.99999000000000005 0
c p weight 2503 1 0
c p weight -2503 1 0
c p weight 2504 1 0
c p weight -2504 1 0
c p weight 2505 3.3333333333333337e-06 0
c p weight -2505 0.99999000000000005 0
c p weight 2506 1 0
c p weight -2506 1 0
c p weight 2507 1 0
c p weight -2507 1 0
c p weight 2508 3.3333333333333337e-06 0
c p weight -2508 0.99999000000000005 0
c p weight 2509 1 0
c p weight -2509 1 0
c p weight 2510 1 0
c p weight -2510 1 0
c p weight 2511 3.3333333333333337e-06 0
c p weight -2511 0.99999000000000005 0
c p weight 2512 1 0
c p weight -2512 1 0
c p weight 2513 1 0
c p weight -2513 1 0
c p weight 2514 3.3333333333333337e-06 0
c p weight -2514 0.99999000000000005 0
c p weight 2515 1 0
c p weight -2515 1 0
c p weight 2516 1 0
c p weight -2516 1 0
c p weight 2517 3.3333333333333337e-06 0
c p weight -2517 0.99999000000000005 0
c p weight 2518 1 0
c p weight -2518 1 0
c p weight 2519 1 0
c p weight -2519 1 0
c p weight 2520 3.3333333333333337e-06 0
c p weight -2520 0.99999000000000005 0
c p weight 2521 1 0
c p weight -2521 1 0
c p weight 2522 1 0
c p weight -2522 1 0
c p weight 2523 3.3333333333333337e-06 0
c p weight -2523 0.99999000000000005 0
c p weight 2524 1 0
c p weight -2524 1 0
c p weight 2525 1 0
c p weight -2525 1 0
c p weight 2526 3.3333333333333337e-06 0
c p weight -2526 0.99999000000000005 0
c p weight 2527 1 0
c p weight -2527 1 0
c p weight 2528 1 0
c p weight -2528 1 0
c p weight 2529 3.3333333333333337e-06 0
c p weight -2529 0.99999000000000005 0
c p weight 2530 1 0
c p weight -2530 1 0
c p weight 2531 1 0
c p weight -2531 1 0
c p weight 2532 3.3333333333333337e-06 0
c p weight -2532 0.99999000000000005 0
c p weight 2533 1 0
c p weight -2533 1 0
c p weight 2534 1 0
c p weight -2534 1 0
c p weight 2535 3.3333333333333337e-06 0
c p weight -2535 0.99999000000000005 0
c p weight 2536 1 0
c p weight -2536 1 0
c p weight 2537 1 0
c p weight -2537 1 0
c p weight 2538 3.3333333333333337e-06 0
c p weight -2538 0.99999000000000005 0
c p weight 2539 1 0
c p weight -2539 1 0
c p weight 2540 1 0
c p weight -2540 1 0
c p weight 2541 6.6666666666666671e-07 0
c p weight -2541 0.99999000000000005 0
c p weight 2542 1 0
c p weight -2542 1 0
c p weight 2543 1 0
c p weight -2543 1 0
c p weight 2544 1 0
c p weight -2544 1 0
c p weight 2545 1 0
c p weight -2545 1 0
c p weight 2546 3.3333333333333337e-06 0
c p weight -2546 0.99999000000000005 0
c p weight 2547 1 0
c p weight -2547 1 0
c p weight 2548 1 0
c p weight -2548 1 0
c p weight 2549 3.3333333333333337e-06 0
c p weight -2549 0.99999000000000005 0
c p weight 2550 1 0
c p weight -2550 1 0
c p weight 2551 1 0
c p weight -2551 1 0
c p weight 2552 3.3333333333333337e-06 0
c p weight -2552 0.99999000000000005 0
c p weight 2553 1 0
c p weight -2553 1 0
c p weight 2554 1 0
c p weight -2554 1 0
c p weight 2555 3.3333333333333337e-06 0
c p weight -2555 0.99999000000000005 0
c p weight 2556 1 0
c p weight -2556 1 0
c p weight 2557 1 0
c p weight -2557 1 0
c p weight 2558 3.3333333333333337e-06 0
c p weight -2558 0.99999000000000005 0
c p weight 2559 1 0
c p weight -2559 1 0
c p weight 2560 1 0
c p weight -2560 1 0
c p weight 2561 3.3333333333333337e-06 0
c p weight -2561 0.99999000000000005 0
c p weight 2562 1 0
c p weight -2562 1 0
c p weight 2563 1 0
c p weight -2563 1 0
c p weight 2564 3.3333333333333337e-06 0
c p weight -2564 0.99999000000000005 0
c p weight 2565 1 0
c p weight -2565 1 0
c p weight 2566 1 0
c p weight -2566 1 0
c p weight 2567 3.3333333333333337e-06 0
c p weight -2567 0.99999000000000005 0
c p weight 2568 1 0
c p weight -2568 1 0
c p weight 2569 1 0
c p weight -2569 1 0
c p weight 2570 3.3333333333333337e-06 0
c p weight -2570 0.99999000000000005 0
c p weight 2571 1 0
c p weight -2571 1 0
c p weight 2572 1 0
c p weight -2572 1 0
c p weight 2573 3.3333333333333337e-06 0
c p weight -2573 0.99999000000000005 0
c p weight 2574 1 0
c p weight -2574 1 0
c p weight 2575 1 0
c p weight -2575 1 0
c p weight 2576 3.3333333333333337e-06 0
c p weight -2576 0.99999000000000005 0
c p weight 2577 1 0
c p weight -2577 1 0
c p weight 2578 1 0
c p weight -2578 1 0
c p weight 2579 3.3333333333333337e-06 0
c p weight -2579 0.99999000000000005 0
c p weight 2580 1 0
c p weight -2580 1 0
c p weight 2581 1 0
c p weight -2581 1 0
c p weight 2582 3.3333333333333337e-06 0
c p weight -2582 0.99999000000000005 0
c p weight 2583 1 0
c p weight -2583 1 0
c p weight 2584 1 0
c p weight -2584 1 0
c p weight 2585 3.3333333333333337e-06 0
c p weight -2585 0.99999000000000005 0
c p weight 2586 1 0
c p weight -2586 1 0
c p weight 2587 1 0
c p weight -2587 1 0
c p weight 2588 3.3333333333333337e-06 0
c p weight -2588 0.99999000000000005 0
c p weight 2589 1 0
c p weight -2589 1 0
c p weight 2590 1 0
c p weight -2590 1 0
c p weight 2591 3.3333333333333337e-06 0
c p weight -2591 0.99999000000000005 0
c p weight 2592 1 0
c p weight -2592 1 0
c p weight 2593 1 0
c p weight -2593 1 0
c p weight 2594 3.3333333333333337e-06 0
c p weight -2594 0.99999000000000005 0
c p weight 2595 1 0
c p weight -2595 1 0
c p weight 2596 1 0
c p weight -2596 1 0
c p weight 2597 3.3333333333333337e-06 0
c p weight -2597 0.99999000000000005 0
c p weight 2598 1 0
c p weight -2598 1 0
c p weight 2599 1 0
c p weight -2599 1 0
c p weight 2600 3.3333333333333337e-06 0
c p weight -2600 0.99999000000000005 0
c p weight 2601 1 0
c p weight -2601 1 0
c p weight 2602 1 0
c p weight -2602 1 0
c p weight 2603 6.6666666666666671e-07 0
c p weight -2603 0.99999000000000005 0
c p weight 2604 1 0
c p weight -2604 1 0
c p weight 2605 1 0
c p weight -2605 1 0
c p weight 2606 1 0
c p weight -2606 1 0
c p weight 2607 1 0
c p weight -2607 1 0
c p weight 2608 3.3333333333333337e-06 0
c p weight -2608 0.99999000000000005 0
c p weight 2609 1 0
c p weight -2609 1 0
c p weight 2610 1 0
c p weight -2610 1 0
c p weight 2611 3.3333333333333337e-06 0
c p weight -2611 0.99999000000000005 0
c p weight 2612 1 0
c p weight -2612 1 0
c p weight 2613 1 0
c p weight -2613 1 0
c p weight 2614 3.3333333333333337e-06 0
c p weight -2614 0.99999000000000005 0
c p weight 2615 1 0
c p weight -2615 1 0
c p weight 2616 1 0
c p weight -2616 1 0
c p weight 2617 3.3333333333333337e-06 0
c p weight -2617 0.99999000000000005 0
c p weight 2618 1 0
c p weight -2618 1 0
c p weight 2619 1 0
c p weight -2619 1 0
c p weight 2620 3.3333333333333337e-06 0
c p weight -2620 0.99999000000000005 0
c p weight 2621 1 0
c p weight -2621 1 0
c p weight 2622 1 0
c p weight -2622 1 0
c p weight 2623 3.3333333333333337e-06 0
c p weight -2623 0.99999000000000005 0
c p weight 2624 1 0
c p weight -2624 1 0
c p weight 2625 1 0
c p weight -2625 1 0
c p weight 2626 3.3333333333333337e-06 0
c p weight -2626 0.99999000000000005 0
c p weight 2627 1 0
c p weight -2627 1 0
c p weight 2628 1 0
c p weight -2628 1 0
c p weight 2629 3.3333333333333337e-06 0
c p weight -2629 0.99999000000000005 0
c p weight 2630 1 0
c p weight -2630 1 0
c p weight 2631 1 0
c p weight -2631 1 0
c p weight 2632 3.3333333333333337e-06 0
c p weight -2632 0.99999000000000005 0
c p weight 2633 1 0
c p weight -2633 1 0
c p weight 2634 1 0
c p weight -2634 1 0
c p weight 2635 3.3333333333333337e-06 0
c p weight -2635 0.99999000000000005 0
c p weight 2636 1 0
c p weight -2636 1 0
c p weight 2637 1 0
c p weight -2637 1 0
c p weight 2638 3.3333333333333337e-06 0
c p weight -2638 0.99999000000000005 0
c p weight 2639 1 0
c p weight -2639 1 0
c p weight 2640 1 0
c p weight -2640 1 0
c p weight 2641 3.3333333333333337e-06 0
c p weight -2641 0.99999000000000005 0
c p weight 2642 1 0
c p weight -2642 1 0
c p weight 2643 1 0
c p weight -2643 1 0
c p weight 2644 3.3333333333333337e-06 0
c p weight -2644 0.99999000000000005 0
c p weight 2645 1 0
c p weight -2645 1 0
c p weight 2646 1 0
c p weight -2646 1 0
c p weight 2647 3.3333333333333337e-06 0
c p weight -2647 0.99999000000000005 0
c p weight 2648 1 0
c p weight -2648 1 0
c p weight 2649 1 0
c p weight -2649 1 0
c p weight 2650 3.3333333333333337e-06 0
c p weight -2650 0.99999000000000005 0
c p weight 2651 1 0
c p weight -2651 1 0
c p weight 2652 1 0
c p weight -2652 1 0
c p weight 2653 3.3333333333333337e-06 0
c p weight -2653 0.99999000000000005 0
c p weight 2654 1 0
c p weight -2654 1 0
c p weight 2655 1 0
c p weight -2655 1 0
c p weight 2656 3.3333333333333337e-06 0
c p weight -2656 0.99999000000000005 0
c p weight 2657 1 0
c p weight -2657 1 0
c p weight 2658 1 0
c p weight -2658 1 0
c p weight 2659 3.3333333333333337e-06 0
c p weight -2659 0.99999000000000005 0
c p weight 2660 1 0
c p weight -2660 1 0
c p weight 2661 1 0
c p weight -2661 1 0
c p weight 2662 3.3333333333333337e-06 0
c p weight -2662 0.99999000000000005 0
c p weight 2663 1 0
c p weight -2663 1 0
c p weight 2664 1 0
c p weight -2664 1 0
c p weight 2665 6.6666666666666671e-07 0
c p weight -2665 0.99999000000000005 0
c p weight 2666 1 0
c p weight -2666 1 0
c p weight 2667 1 0
c p weight -2667 1 0
c p weight 2668 1 0
c p weight -2668 1 0
c p weight 2669 1 0
c p weight -2669 1 0
c p weight 2670 3.3333333333333337e-06 0
c p weight -2670 0.99999000000000005 0
c p weight 2671 1 0
c p weight -2671 1 0
c p weight 2672 1 0
c p weight -2672 1 0
c p weight 2673 3.3333333333333337e-06 0
c p weight -2673 0.99999000000000005 0
c p weight 2674 1 0
c p weight -2674 1 0
c p weight 2675 1 0
c p weight -2675 1 0
c p weight 2676 3.3333333333333337e-06 0
c p weight -2676 0.99999000000000005 0
c p weight 2677 1 0
c p weight -2677 1 0
c p weight 2678 1 0
c p weight -2678 1 0
c p weight 2679 3.3333333333333337e-06 0
c p weight -2679 0.99999000000000005 0
c p weight 2680 1 0
c p weight -2680 1 0
c p weight 2681 1 0
c p weight -2681 1 0
c p weight 2682 3.3333333333333337e-06 0
c p weight -2682 0.99999000000000005 0
c p weight 2683 1 0
c p weight -2683 1 0
c p weight 2684 1 0
c p weight -2684 1 0
c p weight 2685 3.3333333333333337e-06 0
c p weight -2685 0.99999000000000005 0
c p weight 2686 1 0
c p weight -2686 1 0
c p weight 2687 1 0
c p weight -2687 1 0
c p weight 2688 3.3333333333333337e-06 0
c p weight -2688 0.99999000000000005 0
c p weight 2689 1 0
c p weight -2689 1 0
c p weight 2690 1 0
c p weight -2690 1 0
c p weight 2691 3.3333333333333337e-06 0
c p weight -2691 0.99999000000000005 0
c p weight 2692 1 0
c p weight -2692 1 0
c p weight 2693 1 0
c p weight -2693 1 0
c p weight 2694 3.3333333333333337e-06 0
c p weight -2694 0.99999000000000005 0
c p weight 2695 1 0
c p weight -2695 1 0
c p weight 2696 1 0
c p weight -2696 1 0
c p weight 2697 3.3333333333333337e-06 0
c p weight -2697 0.99999000000000005 0
c p weight 2698 1 0
c p weight -2698 1 0
c p weight 2699 1 0
c p weight -2699 1 0
c p weight 2700 3.3333333333333337e-06 0
c p weight -2700 0.99999000000000005 0
c p weight 2701 1 0
c p weight -2701 1 0
c p weight 2702 1 0
c p weight -2702 1 0
c p weight 2703 3.3333333333333337e-06 0
c p weight -2703 0.99999000000000005 0
c p weight 2704 1 0
c p weight -2704 1 0
c p weight 2705 1 0
c p weight -2705 1 0
c p weight 2706 3.3333333333333337e-06 0
c p weight -2706 0.99999000000000005 0
c p weight 2707 1 0
c p weight -2707 1 0
c p weight 2708 1 0
c p weight -2708 1 0
c p weight 2709 3.3333333333333337e-06 0
c p weight -2709 0.99999000000000005 0
c p weight 2710 1 0
c p weight -2710 1 0
c p weight 2711 1 0
c p weight -2711 1 0
c p weight 2712 3.3333333333333337e-06 0
c p weight -2712 0.99999000000000005 0
c p weight 2713 1 0
c p weight -2713 1 0
c p weight 2714 1 0
c p weight -2714 1 0
c p weight 2715 3.3333333333333337e-06 0
c p weight -2715 0.99999000000000005 0
c p weight 2716 1 0
c p weight -2716 1 0
c p weight 2717 1 0
c p weight -2717 1 0
c p weight 2718 3.3333333333333337e-06 0
c p weight -2718 0.99999000000000005 0
c p weight 2719 1 0
c p weight -2719 1 0
c p weight 2720 1 0
c p weight -2720 1 0
c p weight 2721 3.3333333333333337e-06 0
c p weight -2721 0.99999000000000005 0
c p weight 2722 1 0
c p weight -2722 1 0
c p weight 2723 1 0
c p weight -2723 1 0
c p weight 2724 3.3333333333333337e-06 0
c p weight -2724 0.99999000000000005 0
c p weight 2725 1 0
c p weight -2725 1 0
c p weight 2726 1 0
c p weight -2726 1 0
c p weight 2727 6.6666666666666671e-07 0
c p weight -2727 0.99999000000000005 0
c p weight 2728 1 0
c p weight -2728 1 0
c p weight 2729 1 0
c p weight -2729 1 0
c p weight 2730 1 0
c p weight -2730 1 0
c p weight 2731 1 0
c p weight -2731 1 0
c p weight 2732 3.3333333333333337e-06 0
c p weight -2732 0.99999000000000005 0
c p weight 2733 1 0
c p weight -2733 1 0
c p weight 2734 1 0
c p weight -2734 1 0
c p weight 2735 3.3333333333333337e-06 0
c p weight -2735 0.99999000000000005 0
c p weight 2736 1 0
c p weight -2736 1 0
c p weight 2737 1 0
c p weight -2737 1 0
c p weight 2738 3.3333333333333337e-06 0
c p weight -2738 0.99999000000000005 0
c p weight 2739 1 0
c p weight -2739 1 0
c p weight 2740 1 0
c p weight -2740 1 0
c p weight 2741 3.3333333333333337e-06 0
c p weight -2741 0.99999000000000005 0
c p weight 2742 1 0
c p weight -2742 1 0
c p weight 2743 1 0
c p weight -2743 1 0
c p weight 2744 3.3333333333333337e-06 0
c p weight -2744 0.99999000000000005 0
c p weight 2745 1 0
c p weight -2745 1 0
c p weight 2746 1 0
c p weight -2746 1 0
c p weight 2747 3.3333333333333337e-06 0
c p weight -2747 0.99999000000000005 0
c p weight 2748 1 0
c p weight -2748 1 0
c p weight 2749 1 0
c p weight -2749 1 0
c p weight 2750 3.3333333333333337e-06 0
c p weight -2750 0.99999000000000005 0
c p weight 2751 1 0
c p weight -2751 1 0
c p weight 2752 1 0
c p weight -2752 1 0
c p weight 2753 3.3333333333333337e-06 0
c p weight -2753 0.99999000000000005 0
c p weight 2754 1 0
c p weight -2754 1 0
c p weight 2755 1 0
c p weight -2755 1 0
c p weight 2756 3.3333333333333337e-06 0
c p weight -2756 0.99999000000000005 0
c p weight 2757 1 0
c p weight -2757 1 0
c p weight 2758 1 0
c p weight -2758 1 0
c p weight 2759 3.3333333333333337e-06 0
c p weight -2759 0.99999000000000005 0
c p weight 2760 1 0
c p weight -2760 1 0
c p weight 2761 1 0
c p weight -2761 1 0
c p weight 2762 3.3333333333333337e-06 0
c p weight -2762 0.99999000000000005 0
c p weight 2763 1 0
c p weight -2763 1 0
c p weight 2764 1 0
c p weight -2764 1 0
c p weight 2765 3.3333333333333337e-06 0
c p weight -2765 0.99999000000000005 0
c p weight 2766 1 0
c p weight -2766 1 0
c p weight 2767 1 0
c p weight -2767 1 0
c p weight 2768 3.3333333333333337e-06 0
c p weight -2768 0.99999000000000005 0
c p weight 2769 1 0
c p weight -2769 1 0
c p weight 2770 1 0
c p weight -2770 1 0
c p weight 2771 3.3333333333333337e-06 0
c p weight -2771 0.99999000000000005 0
c p weight 2772 1 0
c p weight -2772 1 0
c p weight 2773 1 0
c p weight -2773 1 0
c p weight 2774 3.3333333333333337e-06 0
c p weight -2774 0.99999000000000005 0
c p weight 2775 1 0
c p weight -2775 1 0
c p weight 2776 1 0
c p weight -2776 1 0
c p weight 2777 3.3333333333333337e-06 0
c p weight -2777 0.99999000000000005 0
c p weight 2778 1 0
c p weight -2778 1 0
c p weight 2779 1 0
c p weight -2779 1 0
c p weight 2780 3.3333333333333337e-06 0
c p weight -2780 0.99999000000000005 0
c p weight 2781 1 0
c p weight -2781 1 0
c p weight 2782 1 0
c p weight -2782 1 0
c p weight 2783 3.3333333333333337e-06 0
c p weight -2783 0.99999000000000005 0
c p weight 2784 1 0
c p weight -2784 1 0
c p weight 2785 1 0
c p weight -2785 1 0
c p weight 2786 3.3333333333333337e-06 0
c p weight -2786 0.99999000000000005 0
c p weight 2787 1 0
c p weight -2787 1 0
c p weight 2788 1 0
c p weight -2788 1 0
c p weight 2789 6.6666666666666671e-07 0
c p weight -2789 0.99999000000000005 0
c p weight 2790 1 0
c p weight -2790 1 0
c p weight 2791 1 0
c p weight -2791 1 0
c p weight 2792 1 0
c p weight -2792 1 0
c p weight 2793 1 0
c p weight -2793 1 0
c p weight 2794 3.3333333333333337e-06 0
c p weight -2794 0.99999000000000005 0
c p weight 2795 1 0
c p weight -2795 1 0
c p weight 2796 1 0
c p weight -2796 1 0
c p weight 2797 3.3333333333333337e-06 0
c p weight -2797 0.99999000000000005 0
c p weight 2798 1 0
c p weight -2798 1 0
c p weight 2799 1 0
c p weight -2799 1 0
c p weight 2800 3.3333333333333337e-06 0
c p weight -2800 0.99999000000000005 0
c p weight 2801 1 0
c p weight -2801 1 0
c p weight 2802 1 0
c p weight -2802 1 0
c p weight 2803 3.3333333333333337e-06 0
c p weight -2803 0.99999000000000005 0
c p weight 2804 1 0
c p weight -2804 1 0
c p weight 2805 1 0
c p weight -2805 1 0
c p weight 2806 3.3333333333333337e-06 0
c p weight -2806 0.99999000000000005 0
c p weight 2807 1 0
c p weight -2807 1 0
c p weight 2808 1 0
c p weight -2808 1 0
c p weight 2809 3.3333333333333337e-06 0
c p weight -2809 0.99999000000000005 0
c p weight 2810 1 0
c p weight -2810 1 0
c p weight 2811 1 0
c p weight -2811 1 0
c p weight 2812 3.3333333333333337e-06 0
c p weight -2812 0.99999000000000005 0
c p weight 2813 1 0
c p weight -2813 1 0
c p weight 2814 1 0
c p weight -2814 1 0
c p weight 2815 3.3333333333333337e-06 0
c p weight -2815 0.99999000000000005 0
c p weight 2816 1 0
c p weight -2816 1 0
c p weight 2817 1 0
c p weight -2817 1 0
c p weight 2818 3.3333333333333337e-06 0
c p weight -2818 0.99999000000000005 0
c p weight 2819 1 0
c p weight -2819 1 0
c p weight 2820 1 0
c p weight -2820 1 0
c p weight 2821 3.3333333333333337e-06 0
c p weight -2821 0.99999000000000005 0
c p weight 2822 1 0
c p weight -2822 1 0
c p weight 2823 1 0
c p weight -2823 1 0
c p weight 2824 3.3333333333333337e-06 0
c p weight -2824 0.99999000000000005 0
c p weight 2825 1 0
c p weight -2825 1 0
c p weight 2826 1 0
c p weight -2826 1 0
c p weight 2827 3.3333333333333337e-06 0
c p weight -2827 0.99999000000000005 0
c p weight 2828 1 0
c p weight -2828 1 0
c p weight 2829 1 0
c p weight -2829 1 0
c p weight 2830 3.3333333333333337e-06 0
c p weight -2830 0.99999000000000005 0
c p weight 2831 1 0
c p weight -2831 1 0
c p weight 2832 1 0
c p weight -2832 1 0
c p weight 2833 3.3333333333333337e-06 0
c p weight -2833 0.99999000000000005 0
c p weight 2834 1 0
c p weight -2834 1 0
c p weight 2835 1 0
c p weight -2835 1 0
c p weight 2836 3.3333333333333337e-06 0
c p weight -2836 0.99999000000000005 0
c p weight 2837 1 0
c p weight -2837 1 0
c p weight 2838 1 0
c p weight -2838 1 0
c p weight 2839 3.3333333333333337e-06 0
c p weight -2839 0.99999000000000005 0
c p weight 2840 1 0
c p weight -2840 1 0
c p weight 2841 1 0
c p weight -2841 1 0
c p weight 2842 3.3333333333333337e-06 0
c p weight -2842 0.99999000000000005 0
c p weight 2843 1 0
c p weight -2843 1 0
c p weight 2844 1 0
c p weight -2844 1 0
c p weight 2845 3.3333333333333337e-06 0
c p weight -2845 0.99999000000000005 0
c p weight 2846 1 0
c p weight -2846 1 0
c p weight 2847 1 0
c p weight -2847 1 0
c p weight 2848 3.3333333333333337e-06 0
c p weight -2848 0.99999000000000005 0
c p weight 2849 1 0
c p weight -2849 1 0
c p weight 2850 1 0
c p weight -2850 1 0
c p weight 2851 6.6666666666666671e-07 0
c p weight -2851 0.99999000000000005 0
c p weight 2852 1 0
c p weight -2852 1 0
c p weight 2853 1 0
c p weight -2853 1 0
c p weight 2854 1 0
c p weight -2854 1 0
c p weight 2855 1 0
c p weight -2855 1 0
c p weight 2856 3.3333333333333337e-06 0
c p weight -2856 0.99999000000000005 0
c p weight 2857 1 0
c p weight -2857 1 0
c p weight 2858 1 0
c p weight -2858 1 0
c p weight 2859 3.3333333333333337e-06 0
c p weight -2859 0.99999000000000005 0
c p weight 2860 1 0
c p weight -2860 1 0
c p weight 2861 1 0
c p weight -2861 1 0
c p weight 2862 3.3333333333333337e-06 0
c p weight -2862 0.99999000000000005 0
c p weight 2863 1 0
c p weight -2863 1 0
c p weight 2864 1 0
c p weight -2864 1 0
c p weight 2865 3.3333333333333337e-06 0
c p weight -2865 0.99999000000000005 0
c p weight 2866 1 0
c p weight -2866 1 0
c p weight 2867 1 0
c p weight -2867 1 0
c p weight 2868 3.3333333333333337e-06 0
c p weight -2868 0.99999000000000005 0
c p weight 2869 1 0
c p weight -2869 1 0
c p weight 2870 1 0
c p weight -2870 1 0
c p weight 2871 3.3333333333333337e-06 0
c p weight -2871 0.99999000000000005 0
c p weight 2872 1 0
c p weight -2872 1 0
c p weight 2873 1 0
c p weight -2873 1 0
c p weight 2874 3.3333333333333337e-06 0
c p weight -2874 0.99999000000000005 0
c p weight 2875 1 0
c p weight -2875 1 0
c p weight 2876 1 0
c p weight -2876 1 0
c p weight 2877 3.3333333333333337e-06 0
c p weight -2877 0.99999000000000005 0
c p weight 2878 1 0
c p weight -2878 1 0
c p weight 2879 1 0
c p weight -2879 1 0
c p weight 2880 3.3333333333333337e-06 0
c p weight -2880 0.99999000000000005 0
c p weight 2881 1 0
c p weight -2881 1 0
c p weight 2882 1 0
c p weight -2882 1 0
c p weight 2883 3.3333333333333337e-06 0
c p weight -2883 0.99999000000000005 0
c p weight 2884 1 0
c p weight -2884 1 0
c p weight 2885 1 0
c p weight -2885 1 0
c p weight 2886 3.3333333333333337e-06 0
c p weight -2886 0.99999000000000005 0
c p weight 2887 1 0
c p weight -2887 1 0
c p weight 2888 1 0
c p weight -2888 1 0
c p weight 2889 3.3333333333333337e-06 0
c p weight -2889 0.99999000000000005 0
c p weight 2890 1 0
c p weight -2890 1 0
c p weight 2891 1 0
c p weight -2891 1 0
c p weight 2892 3.3333333333333337e-06 0
c p weight -2892 0.99999000000000005 0
c p weight 2893 1 0
c p weight -2893 1 0
c p weight 2894 1 0
c p weight -2894 1 0
c p weight 2895 3.3333333333333337e-06 0
c p weight -2895 0.99999000000000005 0
c p weight 2896 1 0
c p weight -2896 1 0
c p weight 2897 1 0
c p weight -2897 1 0
c p weight 2898 3.3333333333333337e-06 0
c p weight -2898 0.99999000000000005 0
c p weight 2899 1 0
c p weight -2899 1 0
c p weight 2900 1 0
c p weight -2900 1 0
c p weight 2901 3.3333333333333337e-06 0
c p weight -2901 0.99999000000000005 0
c p weight 2902 1 0
c p weight -2902 1 0
c p weight 2903 1 0
c p weight -2903 1 0
c p weight 2904 3.3333333333333337e-06 0
c p weight -2904 0.99999000000000005 0
c p weight 2905 1 0
c p weight -2905 1 0
c p weight 2906 1 0
c p weight -2906 1 0
c p weight 2907 3.3333333333333337e-06 0
c p weight -2907 0.99999000000000005 0
c p weight 2908 1 0
c p weight -2908 1 0
c p weight 2909 1 0
c p weight -2909 1 0
c p weight 2910 3.3333333333333337e-06 0
c p weight -2910 0.99999000000000005 0
c p weight 2911 1 0
c p weight -2911 1 0
c p weight 2912 1 0
c p weight -2912 1 0
c p weight 2913 6.6666666666666671e-07 0
c p weight -2913 0.99999000000000005 0
c p weight 2914 1 0
c p weight -2914 1 0
c p weight 2915 1 0
c p weight -2915 1 0
c p weight 2916 1 0
c p weight -2916 1 0
c p weight 2917 1 0
c p weight -2917 1 0
c p weight 2918 3.3333333333333337e-06 0
c p weight -2918 0.99999000000000005 0
c p weight 2919 1 0
c p weight -2919 1 0
c p weight 2920 1 0
c p weight -2920 1 0
c p weight 2921 3.3333333333333337e-06 0
c p weight -2921 0.99999000000000005 0
c p weight 2922 1 0
c p weight -2922 1 0
c p weight 2923 1 0
c p weight -2923 1 0
c p weight 2924 3.3333333333333337e-06 0
c p weight -2924 0.99999000000000005 0
c p weight 2925 1 0
c p weight -2925 1 0
c p weight 2926 1 0
c p weight -2926 1 0
c p weight 2927 3.3333333333333337e-06 0
c p weight -2927 0.99999000000000005 0
c p weight 2928 1 0
c p weight -2928 1 0
c p weight 2929 1 0
c p weight -2929 1 0
c p weight 2930 3.3333333333333337e-06 0
c p weight -2930 0.99999000000000005 0
c p weight 2931 1 0
c p weight -2931 1 0
c p weight 2932 1 0
c p weight -2932 1 0
c p weight 2933 3.3333333333333337e-06 0
c p weight -2933 0.99999000000000005 0
c p weight 2934 1 0
c p weight -2934 1 0
c p weight 2935 1 0
c p weight -2935 1 0
c p weight 2936 3.3333333333333337e-06 0
c p weight -2936 0.99999000000000005 0
c p weight 2937 1 0
c p weight -2937 1 0
c p weight 2938 1 0
c p weight -2938 1 0
c p weight 2939 3.3333333333333337e-06 0
c p weight -2939 0.99999000000000005 0
c p weight 2940 1 0
c p weight -2940 1 0
c p weight 2941 1 0
c p weight -2941 1 0
c p weight 2942 3.3333333333333337e-06 0
c p weight -2942 0.99999000000000005 0
c p weight 2943 1 0
c p weight -2943 1 0
c p weight 2944 1 0
c p weight -2944 1 0
c p weight 2945 3.3333333333333337e-06 0
c p weight -2945 0.99999000000000005 0
c p weight 2946 1 0
c p weight -2946 1 0
c p weight 2947 1 0
c p weight -2947 1 0
c p weight 2948 3.3333333333333337e-06 0
c p weight -2948 0.99999000000000005 0
c p weight 2949 1 0
c p weight -2949 1 0
c p weight 2950 1 0
c p weight -2950 1 0
c p weight 2951 3.3333333333333337e-06 0
c p weight -2951 0.99999000000000005 0
c p weight 2952 1 0
c p weight -2952 1 0
c p weight 2953 1 0
c p weight -2953 1 0
c p weight 2954 3.3333333333333337e-06 0
c p weight -2954 0.99999000000000005 0
c p weight 2955 1 0
c p weight -2955 1 0
c p weight 2956 1 0
c p weight -2956 1 0
c p weight 2957 3.3333333333333337e-06 0
c p weight -2957 0.99999000000000005 0
c p weight 2958 1 0
c p weight -2958 1 0
c p weight 2959 1 0
c p weight -2959 1 0
c p weight 2960 3.3333333333333337e-06 0
c p weight -2960 0.99999000000000005 0
c p weight 2961 1 0
c p weight -2961 1 0
c p weight 2962 1 0
c p weight -2962 1 0
c p weight 2963 3.3333333333333337e-06 0
c p weight -2963 0.99999000000000005 0
c p weight 2964 1 0
c p weight -2964 1 0
c p weight 2965 1 0
c p weight -2965 1 0
c p weight 2966 3.3333333333333337e-06 0
c p weight -2966 0.99999000000000005 0
c p weight 2967 1 0
c p weight -2967 1 0
c p weight 2968 1 0
c p weight -2968 1 0
c p weight 2969 3.3333333333333337e-06 0
c p weight -2969 0.99999000000000005 0
c p weight 2970 1 0
c p weight -2970 1 0
c p weight 2971 1 0
c p weight -2971 1 0
c p weight 2972 3.3333333333333337e-06 0
c p weight -2972 0.99999000000000005 0
c p weight 2973 1 0
c p weight -2973 1 0
c p weight 2974 1 0
c p weight -2974 1 0
c p weight 2975 6.6666666666666671e-07 0
c p weight -2975 0.99999000000000005 0
c p weight 2976 1 0
c p weight -2976 1 0
c p weight 2977 1 0
c p weight -2977 1 0
c p weight 2978 1 0
c p weight -2978 1 0
c p weight 2979 1 0
c p weight -2979 1 0
c p weight 2980 3.3333333333333337e-06 0
c p weight -2980 0.99999000000000005 0
c p weight 2981 1 0
c p weight -2981 1 0
c p weight 2982 1 0
c p weight -2982 1 0
c p weight 2983 3.3333333333333337e-06 0
c p weight -2983 0.99999000000000005 0
c p weight 2984 1 0
c p weight -2984 1 0
c p weight 2985 1 0
c p weight -2985 1 0
c p weight 2986 3.3333333333333337e-06 0
c p weight -2986 0.99999000000000005 0
c p weight 2987 1 0
c p weight -2987 1 0
c p weight 2988 1 0
c p weight -2988 1 0
c p weight 2989 3.3333333333333337e-06 0
c p weight -2989 0.99999000000000005 0
c p weight 2990 1 0
c p weight -2990 1 0
c p weight 2991 1 0
c p weight -2991 1 0
c p weight 2992 3.3333333333333337e-06 0
c p weight -2992 0.99999000000000005 0
c p weight 2993 1 0
c p weight -2993 1 0
c p weight 2994 1 0
c p weight -2994 1 0
c p weight 2995 3.3333333333333337e-06 0
c p weight -2995 0.99999000000000005 0
c p weight 2996 1 0
c p weight -2996 1 0
c p weight 2997 1 0
c p weight -2997 1 0
c p weight 2998 3.3333333333333337e-06 0
c p weight -2998 0.99999000000000005 0
c p weight 2999 1 0
c p weight -2999 1 0
c p weight 3000 1 0
c p weight -3000 1 0
c p weight 3001 3.3333333333333337e-06 0
c p weight -3001 0.99999000000000005 0
c p weight 3002 1 0
c p weight -3002 1 0
c p weight 3003 1 0
c p weight -3003 1 0
c p weight 3004 3.3333333333333337e-06 0
c p weight -3004 0.99999000000000005 0
c p weight 3005 1 0
c p weight -3005 1 0
c p weight 3006 1 0
c p weight -3006 1 0
c p weight 3007 3.3333333333333337e-06 0
c p weight -3007 0.99999000000000005 0
c p weight 3008 1 0
c p weight -3008 1 0
c p weight 3009 1 0
c p weight -3009 1 0
c p weight 3010 3.3333333333333337e-06 0
c p weight -3010 0.99999000000000005 0
c p weight 3011 1 0
c p weight -3011 1 0
c p weight 3012 1 0
c p weight -3012 1 0
c p weight 3013 3.3333333333333337e-06 0
c p weight -3013 0.99999000000000005 0
c p weight 3014 1 0
c p weight -3014 1 0
c p weight 3015 1 0
c p weight -3015 1 0
c p weight 3016 3.3333333333333337e-06 0
c p weight -3016 0.99999000000000005 0
c p weight 3017 1 0
c p weight -3017 1 0
c p weight 3018 1 0
c p weight -3018 1 0
c p weight 3019 3.3333333333333337e-06 0
c p weight -3019 0.99999000000000005 0
c p weight 3020 1 0
c p weight -3020 1 0
c p weight 3021 1 0
c p weight -3021 1 0
c p weight 3022 3.3333333333333337e-06 0
c p weight -3022 0.99999000000000005 0
c p weight 3023 1 0
c p weight -3023 1 0
c p weight 3024 1 0
c p weight -3024 1 0
c p weight 3025 3.3333333333333337e-06 0
c p weight -3025 0.99999000000000005 0
c p weight 3026 1 0
c p weight -3026 1 0
c p weight 3027 1 0
c p weight -3027 1 0
c p weight 3028 3.3333333333333337e-06 0
c p weight -3028 0.99999000000000005 0
c p weight 3029 1 0
c p weight -3029 1 0
c p weight 3030 1 0
c p weight -3030 1 0
c p weight 3031 3.3333333333333337e-06 0
c p weight -3031 0.99999000000000005 0
c p weight 3032 1 0
c p weight -3032 1 0
c p weight 3033 1 0
c p weight -3033 1 0
c p weight 3034 3.3333333333333337e-06 0
c p weight -3034 0.99999000000000005 0
c p weight 3035 1 0
c p weight -3035 1 0
c p weight 3036 1 0
c p weight -3036 1 0
c p weight 3037 6.6666666666666671e-07 0
c p weight -3037 0.99999000000000005 0
c p weight 3038 1 0
c p weight -3038 1 0
c p weight 3039 1 0
c p weight -3039 1 0
c p weight 3040 1 0
c p weight -3040 1 0
c p weight 3041 1 0
c p weight -3041 1 0
c p weight 3042 3.3333333333333337e-06 0
c p weight -3042 0.99999000000000005 0
c p weight 3043 1 0
c p weight -3043 1 0
c p weight 3044 1 0
c p weight -3044 1 0
c p weight 3045 3.3333333333333337e-06 0
c p weight -3045 0.99999000000000005 0
c p weight 3046 1 0
c p weight -3046 1 0
c p weight 3047 1 0
c p weight -3047 1 0
c p weight 3048 3.3333333333333337e-06 0
c p weight -3048 0.99999000000000005 0
c p weight 3049 1 0
c p weight -3049 1 0
c p weight 3050 1 0
c p weight -3050 1 0
c p weight 3051 3.3333333333333337e-06 0
c p weight -3051 0.99999000000000005 0
c p weight 3052 1 0
c p weight -3052 1 0
c p weight 3053 1 0
c p weight -3053 1 0
c p weight 3054 3.3333333333333337e-06 0
c p weight -3054 0.99999000000000005 0
c p weight 3055 1 0
c p weight -3055 1 0
c p weight 3056 1 0
c p weight -3056 1 0
c p weight 3057 3.3333333333333337e-06 0
c p weight -3057 0.99999000000000005 0
c p weight 3058 1 0
c p weight -3058 1 0
c p weight 3059 1 0
c p weight -3059 1 0
c p weight 3060 3.3333333333333337e-06 0
c p weight -3060 0.99999000000000005 0
c p weight 3061 1 0
c p weight -3061 1 0
c p weight 3062 1 0
c p weight -3062 1 0
c p weight 3063 3.3333333333333337e-06 0
c p weight -3063 0.99999000000000005 0
c p weight 3064 1 0
c p weight -3064 1 0
c p weight 3065 1 0
c p weight -3065 1 0
c p weight 3066 3.3333333333333337e-06 0
c p weight -3066 0.99999000000000005 0
c p weight 3067 1 0
c p weight -3067 1 0
c p weight 3068 1 0
c p weight -3068 1 0
c p weight 3069 3.3333333333333337e-06 0
c p weight -3069 0.99999000000000005 0
c p weight 3070 1 0
c p weight -3070 1 0
c p weight 3071 1 0
c p weight -3071 1 0
c p weight 3072 3.3333333333333337e-06 0
c p weight -3072 0.99999000000000005 0
c p weight 3073 1 0
c p weight -3073 1 0
c p weight 3074 1 0
c p weight -3074 1 0
c p weight 3075 3.3333333333333337e-06 0
c p weight -3075 0.99999000000000005 0
c p weight 3076 1 0
c p weight -3076 1 0
c p weight 3077 1 0
c p weight -3077 1 0
c p weight 3078 3.3333333333333337e-06 0
c p weight -3078 0.99999000000000005 0
c p weight 3079 1 0
c p weight -3079 1 0
c p weight 3080 1 0
c p weight -3080 1 0
c p weight 3081 3.3333333333333337e-06 0
c p weight -3081 0.99999000000000005 0
c p weight 3082 1 0
c p weight -3082 1 0
c p weight 3083 1 0
c p weight -3083 1 0
c p weight 3084 3.3333333333333337e-06 0
c p weight -3084 0.99999000000000005 0
c p weight 3085 1 0
c p weight -3085 1 0
c p weight 3086 1 0
c p weight -3086 1 0
c p weight 3087 3.3333333333333337e-06 0
c p weight -3087 0.99999000000000005 0
c p weight 3088 1 0
c p weight -3088 1 0
c p weight 3089 1 0
c p weight -3089 1 0
c p weight 3090 3.3333333333333337e-06 0
c p weight -3090 0.99999000000000005 0
c p weight 3091 1 0
c p weight -3091 1 0
c p weight 3092 1 0
c p weight -3092 1 0
c p weight 3093 3.3333333333333337e-06 0
c p weight -3093 0.99999000000000005 0
c p weight 3094 1 0
c p weight -3094 1 0
c p weight 3095 1 0
c p weight -3095 1 0
c p weight 3096 3.3333333333333337e-06 0
c p weight -3096 0.99999000000000005 0
c p weight 3097 1 0
c p weight -3097 1 0
c p weight 3098 1 0
c p weight -3098 1 0
c p weight 3099 6.6666666666666671e-07 0
c p weight -3099 0.99999000000000005 0
c p weight 3100 1 0
c p weight -3100 1 0
c p weight 3101 1 0
c p weight -3101 1 0
c p weight 3102 1 0
c p weight -3102 1 0
c p weight 3103 1 0
c p weight -3103 1 0
c p weight 3104 3.3333333333333337e-06 0
c p weight -3104 0.99999000000000005 0
c p weight 3105 1 0
c p weight -3105 1 0
c p weight 3106 1 0
c p weight -3106 1 0
c p weight 3107 3.3333333333333337e-06 0
c p weight -3107 0.99999000000000005 0
c p weight 3108 1 0
c p weight -3108 1 0
c p weight 3109 1 0
c p weight -3109 1 0
c p weight 3110 3.3333333333333337e-06 0
c p weight -3110 0.99999000000000005 0
c p weight 3111 1 0
c p weight -3111 1 0
c p weight 3112 1 0
c p weight -3112 1 0
c p weight 3113 3.3333333333333337e-06 0
c p weight -3113 0.99999000000000005 0
c p weight 3114 1 0
c p weight -3114 1 0
c p weight 3115 1 0
c p weight -3115 1 0
c p weight 3116 3.3333333333333337e-06 0
c p weight -3116 0.99999000000000005 0
c p weight 3117 1 0
c p weight -3117 1 0
c p weight 3118 1 0
c p weight -3118 1 0
c p weight 3119 3.3333333333333337e-06 0
c p weight -3119 0.99999000000000005 0
c p weight 3120 1 0
c p weight -3120 1 0
c p weight 3121 1 0
c p weight -3121 1 0
c p weight 3122 3.3333333333333337e-06 0
c p weight -3122 0.99999000000000005 0
c p weight 3123 1 0
c p weight -3123 1 0
c p weight 3124 1 0
c p weight -3124 1 0
c p weight 3125 3.3333333333333337e-06 0
c p weight -3125 0.99999000000000005 0
c p weight 3126 1 0
c p weight -3126 1 0
c p weight 3127 1 0
c p weight -3127 1 0
c p weight 3128 3.3333333333333337e-06 0
c p weight -3128 0.99999000000000005 0
c p weight 3129 1 0
c p weight -3129 1 0
c p weight 3130 1 0
c p weight -3130 1 0
c p weight 3131 3.3333333333333337e-06 0
c p weight -3131 0.99999000000000005 0
c p weight 3132 1 0
c p weight -3132 1 0
c p weight 3133 1 0
c p weight -3133 1 0
c p weight 3134 3.3333333333333337e-06 0
c p weight -3134 0.99999000000000005 0
c p weight 3135 1 0
c p weight -3135 1 0
c p weight 3136 1 0
c p weight -3136 1 0
c p weight 3137 3.3333333333333337e-06 0
c p weight -3137 0.99999000000000005 0
c p weight 3138 1 0
c p weight -3138 1 0
c p weight 3139 1 0
c p weight -3139 1 0
c p weight 3140 3.3333333333333337e-06 0
c p weight -3140 0.99999000000000005 0
c p weight 3141 1 0
c p weight -3141 1 0
c p weight 3142 1 0
c p weight -3142 1 0
c p weight 3143 3.3333333333333337e-06 0
c p weight -3143 0.99999000000000005 0
c p weight 3144 1 0
c p weight -3144 1 0
c p weight 3145 1 0
c p weight -3145 1 0
c p weight 3146 3.3333333333333337e-06 0
c p weight -3146 0.99999000000000005 0
c p weight 3147 1 0
c p weight -3147 1 0
c p weight 3148 1 0
c p weight -3148 1 0
c p weight 3149 3.3333333333333337e-06 0
c p weight -3149 0.99999000000000005 0
c p weight 3150 1 0
c p weight -3150 1 0
c p weight 3151 1 0
c p weight -3151 1 0
c p weight 3152 3.3333333333333337e-06 0
c p weight -3152 0.99999000000000005 0
c p weight 3153 1 0
c p weight -3153 1 0
c p weight 3154 1 0
c p weight -3154 1 0
c p weight 3155 3.3333333333333337e-06 0
c p weight -3155 0.99999000000000005 0
c p weight 3156 1 0
c p weight -3156 1 0
c p weight 3157 1 0
c p weight -3157 1 0
c p weight 3158 3.3333333333333337e-06 0
c p weight -3158 0.99999000000000005 0
c p weight 3159 1 0
c p weight -3159 1 0
c p weight 3160 1 0
c p weight -3160 1 0
c p weight 3161 6.6666666666666671e-07 0
c p weight -3161 0.99999000000000005 0
c p weight 3162 1 0
c p weight -3162 1 0
c p weight 3163 1 0
c p weight -3163 1 0
c p weight 3164 1 0
c p weight -3164 1 0
c p weight 3165 1 0
c p weight -3165 1 0
c p weight 3166 3.3333333333333337e-06 0
c p weight -3166 0.99999000000000005 0
c p weight 3167 1 0
c p weight -3167 1 0
c p weight 3168 1 0
c p weight -3168 1 0
c p weight 3169 3.3333333333333337e-06 0
c p weight -3169 0.99999000000000005 0
c p weight 3170 1 0
c p weight -3170 1 0
c p weight 3171 1 0
c p weight -3171 1 0
c p weight 3172 3.3333333333333337e-06 0
c p weight -3172 0.99999000000000005 0
c p weight 3173 1 0
c p weight -3173 1 0
c p weight 3174 1 0
c p weight -3174 1 0
c p weight 3175 3.3333333333333337e-06 0
c p weight -3175 0.99999000000000005 0
c p weight 3176 1 0
c p weight -3176 1 0
c p weight 3177 1 0
c p weight -3177 1 0
c p weight 3178 3.3333333333333337e-06 0
c p weight -3178 0.99999000000000005 0
c p weight 3179 1 0
c p weight -3179 1 0
c p weight 3180 1 0
c p weight -3180 1 0
c p weight 3181 3.3333333333333337e-06 0
c p weight -3181 0.99999000000000005 0
c p weight 3182 1 0
c p weight -3182 1 0
c p weight 3183 1 0
c p weight -3183 1 0
c p weight 3184 3.3333333333333337e-06 0
c p weight -3184 0.99999000000000005 0
c p weight 3185 1 0
c p weight -3185 1 0
c p weight 3186 1 0
c p weight -3186 1 0
c p weight 3187 3.3333333333333337e-06 0
c p weight -3187 0.99999000000000005 0
c p weight 3188 1 0
c p weight -3188 1 0
c p weight 3189 1 0
c p weight -3189 1 0
c p weight 3190 3.3333333333333337e-06 0
c p weight -3190 0.99999000000000005 0
c p weight 3191 1 0
c p weight -3191 1 0
c p weight 3192 1 0
c p weight -3192 1 0
c p weight 3193 3.3333333333333337e-06 0
c p weight -3193 0.99999000000000005 0
c p weight 3194 1 0
c p weight -3194 1 0
c p weight 3195 1 0
c p weight -3195 1 0
c p weight 3196 3.3333333333333337e-06 0
c p weight -3196 0.99999000000000005 0
c p weight 3197 1 0
c p weight -3197 1 0
c p weight 3198 1 0
c p weight -3198 1 0
c p weight 3199 3.3333333333333337e-06 0
c p weight -3199 0.99999000000000005 0
c p weight 3200 1 0
c p weight -3200 1 0
c p weight 3201 1 0
c p weight -3201 1 0
c p weight 3202 3.3333333333333337e-06 0
c p weight -3202 0.99999000000000005 0
c p weight 3203 1 0
c p weight -3203 1 0
c p weight 3204 1 0
c p weight -3204 1 0
c p weight 3205 3.3333333333333337e-06 0
c p weight -3205 0.99999000000000005 0
c p weight 3206 1 0
c p weight -3206 1 0
c p weight 3207 1 0
c p weight -3207 1 0
c p weight 3208 3.3333333333333337e-06 0
c p weight -3208 0.99999000000000005 0
c p weight 3209 1 0
c p weight -3209 1 0
c p weight 3210 1 0
c p weight -3210 1 0
c p weight 3211 3.3333333333333337e-06 0
c p weight -3211 0.99999000000000005 0
c p weight 3212 1 0
c p weight -3212 1 0
c p weight 3213 1 0
c p weight -3213 1 0
c p weight 3214 3.3333333333333337e-06 0
c p weight -3214 0.99999000000000005 0
c p weight 3215 1 0
c p weight -3215 1 0
c p weight 3216 1 0
c p weight -3216 1 0
c p weight 3217 3.3333333333333337e-06 0
c p weight -3217 0.99999000000000005 0
c p weight 3218 1 0
c p weight -3218 1 0
c p weight 3219 1 0
c p weight -3219 1 0
c p weight 3220 3.3333333333333337e-06 0
c p weight -3220 0.99999000000000005 0
c p weight 3221 1 0
c p weight -3221 1 0
c p weight 3222 1 0
c p weight -3222 1 0
c p weight 3223 6.6666666666666671e-07 0
c p weight -3223 0.99999000000000005 0
c p weight 3224 1 0
c p weight -3224 1 0
c p weight 3225 1 0
c p weight -3225 1 0
c p weight 3226 1 0
c p weight -3226 1 0
c p weight 3227 1 0
c p weight -3227 1 0
c p weight 3228 3.3333333333333337e-06 0
c p weight -3228 0.99999000000000005 0
c p weight 3229 1 0
c p weight -3229 1 0
c p weight 3230 1 0
c p weight -3230 1 0
c p weight 3231 3.3333333333333337e-06 0
c p weight -3231 0.99999000000000005 0
c p weight 3232 1 0
c p weight -3232 1 0
c p weight 3233 1 0
c p weight -3233 1 0
c p weight 3234 3.3333333333333337e-06 0
c p weight -3234 0.99999000000000005 0
c p weight 3235 1 0
c p weight -3235 1 0
c p weight 3236 1 0
c p weight -3236 1 0
c p weight 3237 3.3333333333333337e-06 0
c p weight -3237 0.99999000000000005 0
c p weight 3238 1 0
c p weight -3238 1 0
c p weight 3239 1 0
c p weight -3239 1 0
c p weight 3240 3.3333333333333337e-06 0
c p weight -3240 0.99999000000000005 0
c p weight 3241 1 0
c p weight -3241 1 0
c p weight 3242 1 0
c p weight -3242 1 0
c p weight 3243 3.3333333333333337e-06 0
c p weight -3243 0.99999000000000005 0
c p weight 3244 1 0
c p weight -3244 1 0
c p weight 3245 1 0
c p weight -3245 1 0
c p weight 3246 3.3333333333333337e-06 0
c p weight -3246 0.99999000000000005 0
c p weight 3247 1 0
c p weight -3247 1 0
c p weight 3248 1 0
c p weight -3248 1 0
c p weight 3249 3.3333333333333337e-06 0
c p weight -3249 0.99999000000000005 0
c p weight 3250 1 0
c p weight -3250 1 0
c p weight 3251 1 0
c p weight -3251 1 0
c p weight 3252 3.3333333333333337e-06 0
c p weight -3252 0.99999000000000005 0
c p weight 3253 1 0
c p weight -3253 1 0
c p weight 3254 1 0
c p weight -3254 1 0
c p weight 3255 3.3333333333333337e-06 0
c p weight -3255 0.99999000000000005 0
c p weight 3256 1 0
c p weight -3256 1 0
c p weight 3257 1 0
c p weight -3257 1 0
c p weight 3258 3.3333333333333337e-06 0
c p weight -3258 0.99999000000000005 0
c p weight 3259 1 0
c p weight -3259 1 0
c p weight 3260 1 0
c p weight -3260 1 0
c p weight 3261 3.3333333333333337e-06 0
c p weight -3261 0.99999000000000005 0
c p weight 3262 1 0
c p weight -3262 1 0
c p weight 3263 1 0
c p weight -3263 1 0
c p weight 3264 3.3333333333333337e-06 0
c p weight -3264 0.99999000000000005 0
c p weight 3265 1 0
c p weight -3265 1 0
c p weight 3266 1 0
c p weight -3266 1 0
c p weight 3267 3.3333333333333337e-06 0
c p weight -3267 0.99999000000000005 0
c p weight 3268 1 0
c p weight -3268 1 0
c p weight 3269 1 0
c p weight -3269 1 0
c p weight 3270 3.3333333333333337e-06 0
c p weight -3270 0.99999000000000005 0
c p weight 3271 1 0
c p weight -3271 1 0
c p weight 3272 1 0
c p weight -3272 1 0
c p weight 3273 3.3333333333333337e-06 0
c p weight -3273 0.99999000000000005 0
c p weight 3274 1 0
c p weight -3274 1 0
c p weight 3275 1 0
c p weight -3275 1 0
c p weight 3276 3.3333333333333337e-06 0
c p weight -3276 0.99999000000000005 0
c p weight 3277 1 0
c p weight -3277 1 0
c p weight 3278 1 0
c p weight -3278 1 0
c p weight 3279 3.3333333333333337e-06 0
c p weight -3279 0.99999000000000005 0
c p weight 3280 1 0
c p weight -3280 1 0
c p weight 3281 1 0
c p weight -3281 1 0
c p weight 3282 3.3333333333333337e-06 0
c p weight -3282 0.99999000000000005 0
c p weight 3283 1 0
c p weight -3283 1 0
c p weight 3284 1 0
c p weight -3284 1 0
c p weight 3285 6.6666666666666671e-07 0
c p weight -3285 0.99999000000000005 0
c p weight 3286 1 0
c p weight -3286 1 0
c p weight 3287 1 0
c p weight -3287 1 0
c p weight 3288 1 0
c p weight -3288 1 0
c p weight 3289 1 0
c p weight -3289 1 0
c p weight 3290 3.3333333333333337e-06 0
c p weight -3290 0.99999000000000005 0
c p weight 3291 1 0
c p weight -3291 1 0
c p weight 3292 1 0
c p weight -3292 1 0
c p weight 3293 3.3333333333333337e-06 0
c p weight -3293 0.99999000000000005 0
c p weight 3294 1 0
c p weight -3294 1 0
c p weight 3295 1 0
c p weight -3295 1 0
c p weight 3296 3.3333333333333337e-06 0
c p weight -3296 0.99999000000000005 0
c p weight 3297 1 0
c p weight -3297 1 0
c p weight 3298 1 0
c p weight -3298 1 0
c p weight 3299 3.3333333333333337e-06 0
c p weight -3299 0.99999000000000005 0
c p weight 3300 1 0
c p weight -3300 1 0
c p weight 3301 1 0
c p weight -3301 1 0
c p weight 3302 3.3333333333333337e-06 0
c p weight -3302 0.99999000000000005 0
c p weight 3303 1 0
c p weight -3303 1 0
c p weight 3304 1 0
c p weight -3304 1 0
c p weight 3305 3.3333333333333337e-06 0
c p weight -3305 0.99999000000000005 0
c p weight 3306 1 0
c p weight -3306 1 0
c p weight 3307 1 0
c p weight -3307 1 0
c p weight 3308 3.3333333333333337e-06 0
c p weight -3308 0.99999000000000005 0
c p weight 3309 1 0
c p weight -3309 1 0
c p weight 3310 1 0
c p weight -3310 1 0
c p weight 3311 3.3333333333333337e-06 0
c p weight -3311 0.99999000000000005 0
c p weight 3312 1 0
c p weight -3312 1 0
c p weight 3313 1 0
c p weight -3313 1 0
c p weight 3314 3.3333333333333337e-06 0
c p weight -3314 0.99999000000000005 0
c p weight 3315 1 0
c p weight -3315 1 0
c p weight 3316 1 0
c p weight -3316 1 0
c p weight 3317 3.3333333333333337e-06 0
c p weight -3317 0.99999000000000005 0
c p weight 3318 1 0
c p weight -3318 1 0
c p weight 3319 1 0
c p weight -3319 1 0
c p weight 3320 3.3333333333333337e-06 0
c p weight -3320 0.99999000000000005 0
c p weight 3321 1 0
c p weight -3321 1 0
c p weight 3322 1 0
c p weight -3322 1 0
c p weight 3323 3.3333333333333337e-06 0
c p weight -3323 0.99999000000000005 0
c p weight 3324 1 0
c p weight -3324 1 0
c p weight 3325 1 0
c p weight -3325 1 0
c p weight 3326 3.3333333333333337e-06 0
c p weight -3326 0.99999000000000005 0
c p weight 3327 1 0
c p weight -3327 1 0
c p weight 3328 1 0
c p weight -3328 1 0
c p weight 3329 3.3333333333333337e-06 0
c p weight -3329 0.99999000000000005 0
c p weight 3330 1 0
c p weight -3330 1 0
c p weight 3331 1 0
c p weight -3331 1 0
c p weight 3332 3.3333333333333337e-06 0
c p weight -3332 0.99999000000000005 0
c p weight 3333 1 0
c p weight -3333 1 0
c p weight 3334 1 0
c p weight -3334 1 0
c p weight 3335 3.3333333333333337e-06 0
c p weight -3335 0.99999000000000005 0
c p weight 3336 1 0
c p weight -3336 1 0
c p weight 3337 1 0
c p weight -3337 1 0
c p weight 3338 3.3333333333333337e-06 0
c p weight -3338 0.99999000000000005 0
c p weight 3339 1 0
c p weight -3339 1 0
c p weight 3340 1 0
c p weight -3340 1 0
c p weight 3341 3.3333333333333337e-06 0
c p weight -3341 0.99999000000000005 0
c p weight 3342 1 0
c p weight -3342 1 0
c p weight 3343 1 0
c p weight -3343 1 0
c p weight 3344 3.3333333333333337e-06 0
c p weight -3344 0.99999000000000005 0
c p weight 3345 1 0
c p weight -3345 1 0
c p weight 3346 1 0
c p weight -3346 1 0
c p weight 3347 6.6666666666666671e-07 0
c p weight -3347 0.99999000000000005 0
c p weight 3348 1 0
c p weight -3348 1 0
c p weight 3349 1 0
c p weight -3349 1 0
c p weight 3350 1 0
c p weight -3350 1 0
c p weight 3351 1 0
c p weight -3351 1 0
c p weight 3352 3.3333333333333337e-06 0
c p weight -3352 0.99999000000000005 0
c p weight 3353 1 0
c p weight -3353 1 0
c p weight 3354 1 0
c p weight -3354 1 0
c p weight 3355 3.3333333333333337e-06 0
c p weight -3355 0.99999000000000005 0
c p weight 3356 1 0
c p weight -3356 1 0
c p weight 3357 1 0
c p weight -3357 1 0
c p weight 3358 3.3333333333333337e-06 0
c p weight -3358 0.99999000000000005 0
c p weight 3359 1 0
c p weight -3359 1 0
c p weight 3360 1 0
c p weight -3360 1 0
c p weight 3361 3.3333333333333337e-06 0
c p weight -3361 0.99999000000000005 0
c p weight 3362 1 0
c p weight -3362 1 0
c p weight 3363 1 0
c p weight -3363 1 0
c p weight 3364 3.3333333333333337e-06 0
c p weight -3364 0.99999000000000005 0
c p weight 3365 1 0
c p weight -3365 1 0
c p weight 3366 1 0
c p weight -3366 1 0
c p weight 3367 3.3333333333333337e-06 0
c p weight -3367 0.99999000000000005 0
c p weight 3368 1 0
c p weight -3368 1 0
c p weight 3369 1 0
c p weight -3369 1 0
c p weight 3370 3.3333333333333337e-06 0
c p weight -3370 0.99999000000000005 0
c p weight 3371 1 0
c p weight -3371 1 0
c p weight 3372 1 0
c p weight -3372 1 0
c p weight 3373 3.3333333333333337e-06 0
c p weight -3373 0.99999000000000005 0
c p weight 3374 1 0
c p weight -3374 1 0
c p weight 3375 1 0
c p weight -3375 1 0
c p weight 3376 3.3333333333333337e-06 0
c p weight -3376 0.99999000000000005 0
c p weight 3377 1 0
c p weight -3377 1 0
c p weight 3378 1 0
c p weight -3378 1 0
c p weight 3379 3.3333333333333337e-06 0
c p weight -3379 0.99999000000000005 0
c p weight 3380 1 0
c p weight -3380 1 0
c p weight 3381 1 0
c p weight -3381 1 0
c p weight 3382 3.3333333333333337e-06 0
c p weight -3382 0.99999000000000005 0
c p weight 3383 1 0
c p weight -3383 1 0
c p weight 3384 1 0
c p weight -3384 1 0
c p weight 3385 3.3333333333333337e-06 0
c p weight -3385 0.99999000000000005 0
c p weight 3386 1 0
c p weight -3386 1 0
c p weight 3387 1 0
c p weight -3387 1 0
c p weight 3388 3.3333333333333337e-06 0
c p weight -3388 0.99999000000000005 0
c p weight 3389 1 0
c p weight -3389 1 0
c p weight 3390 1 0
c p weight -3390 1 0
c p weight 3391 3.3333333333333337e-06 0
c p weight -3391 0.99999000000000005 0
c p weight 3392 1 0
c p weight -3392 1 0
c p weight 3393 1 0
c p weight -3393 1 0
c p weight 3394 3.3333333333333337e-06 0
c p weight -3394 0.99999000000000005 0
c p weight 3395 1 0
c p weight -3395 1 0
c p weight 3396 1 0
c p weight -3396 1 0
c p weight 3397 3.3333333333333337e-06 0
c p weight -3397 0.99999000000000005 0
c p weight 3398 1 0
c p weight -3398 1 0
c p weight 3399 1 0
c p weight -3399 1 0
c p weight 3400 3.3333333333333337e-06 0
c p weight -3400 0.99999000000000005 0
c p weight 3401 1 0
c p weight -3401 1 0
c p weight 3402 1 0
c p weight -3402 1 0
c p weight 3403 3.3333333333333337e-06 0
c p weight -3403 0.99999000000000005 0
c p weight 3404 1 0
c p weight -3404 1 0
c p weight 3405 1 0
c p weight -3405 1 0
c p weight 3406 3.3333333333333337e-06 0
c p weight -3406 0.99999000000000005 0
c p weight 3407 1 0
c p weight -3407 1 0
c p weight 3408 1 0
c p weight -3408 1 0
c p weight 3409 6.6666666666666671e-07 0
c p weight -3409 0.99999000000000005 0
c p weight 3410 1 0
c p weight -3410 1 0
c p weight 3411 1 0
c p weight -3411 1 0
c p weight 3412 1 0
c p weight -3412 1 0
c p weight 3413 1 0
c p weight -3413 1 0
c p weight 3414 3.3333333333333337e-06 0
c p weight -3414 0.99999000000000005 0
c p weight 3415 1 0
c p weight -3415 1 0
c p weight 3416 1 0
c p weight -3416 1 0
c p weight 3417 3.3333333333333337e-06 0
c p weight -3417 0.99999000000000005 0
c p weight 3418 1 0
c p weight -3418 1 0
c p weight 3419 1 0
c p weight -3419 1 0
c p weight 3420 3.3333333333333337e-06 0
c p weight -3420 0.99999000000000005 0
c p weight 3421 1 0
c p weight -3421 1 0
c p weight 3422 1 0
c p weight -3422 1 0
c p weight 3423 3.3333333333333337e-06 0
c p weight -3423 0.99999000000000005 0
c p weight 3424 1 0
c p weight -3424 1 0
c p weight 3425 1 0
c p weight -3425 1 0
c p weight 3426 3.3333333333333337e-06 0
c p weight -3426 0.99999000000000005 0
c p weight 3427 1 0
c p weight -3427 1 0
c p weight 3428 1 0
c p weight -3428 1 0
c p weight 3429 3.3333333333333337e-06 0
c p weight -3429 0.99999000000000005 0
c p weight 3430 1 0
c p weight -3430 1 0
c p weight 3431 1 0
c p weight -3431 1 0
c p weight 3432 3.3333333333333337e-06 0
c p weight -3432 0.99999000000000005 0
c p weight 3433 1 0
c p weight -3433 1 0
c p weight 3434 1 0
c p weight -3434 1 0
c p weight 3435 3.3333333333333337e-06 0
c p weight -3435 0.99999000000000005 0
c p weight 3436 1 0
c p weight -3436 1 0
c p weight 3437 1 0
c p weight -3437 1 0
c p weight 3438 3.3333333333333337e-06 0
c p weight -3438 0.99999000000000005 0
c p weight 3439 1 0
c p weight -3439 1 0
c p weight 3440 1 0
c p weight -3440 1 0
c p weight 3441 3.3333333333333337e-06 0
c p weight -3441 0.99999000000000005 0
c p weight 3442 1 0
c p weight -3442 1 0
c p weight 3443 1 0
c p weight -3443 1 0
c p weight 3444 3.3333333333333337e-06 0
c p weight -3444 0.99999000000000005 0
c p weight 3445 1 0
c p weight -3445 1 0
c p weight 3446 1 0
c p weight -3446 1 0
c p weight 3447 3.3333333333333337e-06 0
c p weight -3447 0.99999000000000005 0
c p weight 3448 1 0
c p weight -3448 1 0
c p weight 3449 1 0
c p weight -3449 1 0
c p weight 3450 3.3333333333333337e-06 0
c p weight -3450 0.99999000000000005 0
c p weight 3451 1 0
c p weight -3451 1 0
c p weight 3452 1 0
c p weight -3452 1 0
c p weight 3453 3.3333333333333337e-06 0
c p weight -3453 0.99999000000000005 0
c p weight 3454 1 0
c p weight -3454 1 0
c p weight 3455 1 0
c p weight -3455 1 0
c p weight 3456 3.3333333333333337e-06 0
c p weight -3456 0.99999000000000005 0
c p weight 3457 1 0
c p weight -3457 1 0
c p weight 3458 1 0
c p weight -3458 1 0
c p weight 3459 3.3333333333333337e-06 0
c p weight -3459 0.99999000000000005 0
c p weight 3460 1 0
c p weight -3460 1 0
c p weight 3461 1 0
c p weight -3461 1 0
c p weight 3462 3.3333333333333337e-06 0
c p weight -3462 0.99999000000000005 0
c p weight 3463 1 0
c p weight -3463 1 0
c p weight 3464 1 0
c p weight -3464 1 0
c p weight 3465 3.3333333333333337e-06 0
c p weight -3465 0.99999000000000005 0
c p weight 3466 1 0
c p weight -3466 1 0
c p weight 3467 1 0
c p weight -3467 1 0
c p weight 3468 3.3333333333333337e-06 0
c p weight -3468 0.99999000000000005 0
c p weight 3469 1 0
c p weight -3469 1 0
c p weight 3470 1 0
c p weight -3470 1 0
c p weight 3471 6.6666666666666671e-07 0
c p weight -3471 0.99999000000000005 0
c p weight 3472 1 0
c p weight -3472 1 0
c p weight 3473 1 0
c p weight -3473 1 0
c p weight 3474 1 0
c p weight -3474 1 0
c p weight 3475 1 0
c p weight -3475 1 0
c p weight 3476 3.3333333333333337e-06 0
c p weight -3476 0.99999000000000005 0
c p weight 3477 1 0
c p weight -3477 1 0
c p weight 3478 1 0
c p weight -3478 1 0
c p weight 3479 3.3333333333333337e-06 0
c p weight -3479 0.99999000000000005 0
c p weight 3480 1 0
c p weight -3480 1 0
c p weight 3481 1 0
c p weight -3481 1 0
c p weight 3482 3.3333333333333337e-06 0
c p weight -3482 0.99999000000000005 0
c p weight 3483 1 0
c p weight -3483 1 0
c p weight 3484 1 0
c p weight -3484 1 0
c p weight 3485 3.3333333333333337e-06 0
c p weight -3485 0.99999000000000005 0
c p weight 3486 1 0
c p weight -3486 1 0
c p weight 3487 1 0
c p weight -3487 1 0
c p weight 3488 3.3333333333333337e-06 0
c p weight -3488 0.99999000000000005 0
c p weight 3489 1 0
c p weight -3489 1 0
c p weight 3490 1 0
c p weight -3490 1 0
c p weight 3491 3.3333333333333337e-06 0
c p weight -3491 0.99999000000000005 0
c p weight 3492 1 0
c p weight -3492 1 0
c p weight 3493 1 0
c p weight -3493 1 0
c p weight 3494 3.3333333333333337e-06 0
c p weight -3494 0.99999000000000005 0
c p weight 3495 1 0
c p weight -3495 1 0
c p weight 3496 1 0
c p weight -3496 1 0
c p weight 3497 3.3333333333333337e-06 0
c p weight -3497 0.99999000000000005 0
c p weight 3498 1 0
c p weight -3498 1 0
c p weight 3499 1 0
c p weight -3499 1 0
c p weight 3500 3.3333333333333337e-06 0
c p weight -3500 0.99999000000000005 0
c p weight 3501 1 0
c p weight -3501 1 0
c p weight 3502 1 0
c p weight -3502 1 0
c p weight 3503 3.3333333333333337e-06 0
c p weight -3503 0.99999000000000005 0
c p weight 3504 1 0
c p weight -3504 1 0
c p weight 3505 1 0
c p weight -3505 1 0
c p weight 3506 3.3333333333333337e-06 0
c p weight -3506 0.99999000000000005 0
c p weight 3507 1 0
c p weight -3507 1 0
c p weight 3508 1 0
c p weight -3508 1 0
c p weight 3509 3.3333333333333337e-06 0
c p weight -3509 0.99999000000000005 0
c p weight 3510 1 0
c p weight -3510 1 0
c p weight 3511 1 0
c p weight -3511 1 0
c p weight 3512 3.3333333333333337e-06 0
c p weight -3512 0.99999000000000005 0
c p weight 3513 1 0
c p weight -3513 1 0
c p weight 3514 1 0
c p weight -3514 1 0
c p weight 3515 3.3333333333333337e-06 0
c p weight -3515 0.99999000000000005 0
c p weight 3516 1 0
c p weight -3516 1 0
c p weight 3517 1 0
c p weight -3517 1 0
c p weight 3518 3.3333333333333337e-06 0
c p weight -3518 0.99999000000000005 0
c p weight 3519 1 0
c p weight -3519 1 0
c p weight 3520 1 0
c p weight -3520 1 0
c p weight 3521 3.3333333333333337e-06 0
c p weight -3521 0.99999000000000005 0
c p weight 3522 1 0
c p weight -3522 1 0
c p weight 3523 1 0
c p weight -3523 1 0
c p weight 3524 3.3333333333333337e-06 0
c p weight -3524 0.99999000000000005 0
c p weight 3525 1 0
c p weight -3525 1 0
c p weight 3526 1 0
c p weight -3526 1 0
c p weight 3527 3.3333333333333337e-06 0
c p weight -3527 0.99999000000000005 0
c p weight 3528 1 0
c p weight -3528 1 0
c p weight 3529 1 0
c p weight -3529 1 0
c p weight 3530 3.3333333333333337e-06 0
c p weight -3530 0.99999000000000005 0
c p weight 3531 1 0
c p weight -3531 1 0
c p weight 3532 1 0
c p weight -3532 1 0
c p weight 3533 6.6666666666666671e-07 0
c p weight -3533 0.99999000000000005 0
c p weight 3534 1 0
c p weight -3534 1 0
c p weight 3535 1 0
c p weight -3535 1 0
c p weight 3536 1 0
c p weight -3536 1 0
c p weight 3537 1 0
c p weight -3537 1 0
c p weight 3538 3.3333333333333337e-06 0
c p weight -3538 0.99999000000000005 0
c p weight 3539 1 0
c p weight -3539 1 0
c p weight 3540 1 0
c p weight -3540 1 0
c p weight 3541 3.3333333333333337e-06 0
c p weight -3541 0.99999000000000005 0
c p weight 3542 1 0
c p weight -3542 1 0
c p weight 3543 1 0
c p weight -3543 1 0
c p weight 3544 3.3333333333333337e-06 0
c p weight -3544 0.99999000000000005 0
c p weight 3545 1 0
c p weight -3545 1 0
c p weight 3546 1 0
c p weight -3546 1 0
c p weight 3547 3.3333333333333337e-06 0
c p weight -3547 0.99999000000000005 0
c p weight 3548 1 0
c p weight -3548 1 0
c p weight 3549 1 0
c p weight -3549 1 0
c p weight 3550 3.3333333333333337e-06 0
c p weight -3550 0.99999000000000005 0
c p weight 3551 1 0
c p weight -3551 1 0
c p weight 3552 1 0
c p weight -3552 1 0
c p weight 3553 3.3333333333333337e-06 0
c p weight -3553 0.99999000000000005 0
c p weight 3554 1 0
c p weight -3554 1 0
c p weight 3555 1 0
c p weight -3555 1 0
c p weight 3556 3.3333333333333337e-06 0
c p weight -3556 0.99999000000000005 0
c p weight 3557 1 0
c p weight -3557 1 0
c p weight 3558 1 0
c p weight -3558 1 0
c p weight 3559 3.3333333333333337e-06 0
c p weight -3559 0.99999000000000005 0
c p weight 3560 1 0
c p weight -3560 1 0
c p weight 3561 1 0
c p weight -3561 1 0
c p weight 3562 3.3333333333333337e-06 0
c p weight -3562 0.99999000000000005 0
c p weight 3563 1 0
c p weight -3563 1 0
c p weight 3564 1 0
c p weight -3564 1 0
c p weight 3565 3.3333333333333337e-06 0
c p weight -3565 0.99999000000000005 0
c p weight 3566 1 0
c p weight -3566 1 0
c p weight 3567 1 0
c p weight -3567 1 0
c p weight 3568 3.3333333333333337e-06 0
c p weight -3568 0.99999000000000005 0
c p weight 3569 1 0
c p weight -3569 1 0
c p weight 3570 1 0
c p weight -3570 1 0
c p weight 3571 3.3333333333333337e-06 0
c p weight -3571 0.99999000000000005 0
c p weight 3572 1 0
c p weight -3572 1 0
c p weight 3573 1 0
c p weight -3573 1 0
c p weight 3574 3.3333333333333337e-06 0
c p weight -3574 0.99999000000000005 0
c p weight 3575 1 0
c p weight -3575 1 0
c p weight 3576 1 0
c p weight -3576 1 0
c p weight 3577 3.3333333333333337e-06 0
c p weight -3577 0.99999000000000005 0
c p weight 3578 1 0
c p weight -3578 1 0
c p weight 3579 1 0
c p weight -3579 1 0
c p weight 3580 3.3333333333333337e-06 0
c p weight -3580 0.99999000000000005 0
c p weight 3581 1 0
c p weight -3581 1 0
c p weight 3582 1 0
c p weight -3582 1 0
c p weight 3583 3.3333333333333337e-06 0
c p weight -3583 0.99999000000000005 0
c p weight 3584 1 0
c p weight -3584 1 0
c p weight 3585 1 0
c p weight -3585 1 0
c p weight 3586 3.3333333333333337e-06 0
c p weight -3586 0.99999000000000005 0
c p weight 3587 1 0
c p weight -3587 1 0
c p weight 3588 1 0
c p weight -3588 1 0
c p weight 3589 3.3333333333333337e-06 0
c p weight -3589 0.99999000000000005 0
c p weight 3590 1 0
c p weight -3590 1 0
c p weight 3591 1 0
c p weight -3591 1 0
c p weight 3592 3.3333333333333337e-06 0
c p weight -3592 0.99999000000000005 0
c p weight 3593 1 0
c p weight -3593 1 0
c p weight 3594 1 0
c p weight -3594 1 0
c p weight 3595 6.6666666666666671e-07 0
c p weight -3595 0.99999000000000005 0
c p weight 3596 1 0
c p weight -3596 1 0
c p weight 3597 1 0
c p weight -3597 1 0
c p weight 3598 1 0
c p weight -3598 1 0
c p weight 3599 1 0
c p weight -3599 1 0
c p weight 3600 3.3333333333333337e-06 0
c p weight -3600 0.99999000000000005 0
c p weight 3601 1 0
c p weight -3601 1 0
c p weight 3602 1 0
c p weight -3602 1 0
c p weight 3603 3.3333333333333337e-06 0
c p weight -3603 0.99999000000000005 0
c p weight 3604 1 0
c p weight -3604 1 0
c p weight 3605 1 0
c p weight -3605 1 0
c p weight 3606 3.3333333333333337e-06 0
c p weight -3606 0.99999000000000005 0
c p weight 3607 1 0
c p weight -3607 1 0
c p weight 3608 1 0
c p weight -3608 1 0
c p weight 3609 3.3333333333333337e-06 0
c p weight -3609 0.99999000000000005 0
c p weight 3610 1 0
c p weight -3610 1 0
c p weight 3611 1 0
c p weight -3611 1 0
c p weight 3612 3.3333333333333337e-06 0
c p weight -3612 0.99999000000000005 0
c p weight 3613 1 0
c p weight -3613 1 0
c p weight 3614 1 0
c p weight -3614 1 0
c p weight 3615 3.3333333333333337e-06 0
c p weight -3615 0.99999000000000005 0
c p weight 3616 1 0
c p weight -3616 1 0
c p weight 3617 1 0
c p weight -3617 1 0
c p weight 3618 3.3333333333333337e-06 0
c p weight -3618 0.99999000000000005 0
c p weight 3619 1 0
c p weight -3619 1 0
c p weight 3620 1 0
c p weight -3620 1 0
c p weight 3621 3.3333333333333337e-06 0
c p weight -3621 0.99999000000000005 0
c p weight 3622 1 0
c p weight -3622 1 0
c p weight 3623 1 0
c p weight -3623 1 0
c p weight 3624 3.3333333333333337e-06 0
c p weight -3624 0.99999000000000005 0
c p weight 3625 1 0
c p weight -3625 1 0
c p weight 3626 1 0
c p weight -3626 1 0
c p weight 3627 3.3333333333333337e-06 0
c p weight -3627 0.99999000000000005 0
c p weight 3628 1 0
c p weight -3628 1 0
c p weight 3629 1 0
c p weight -3629 1 0
c p weight 3630 3.3333333333333337e-06 0
c p weight -3630 0.99999000000000005 0
c p weight 3631 1 0
c p weight -3631 1 0
c p weight 3632 1 0
c p weight -3632 1 0
c p weight 3633 3.3333333333333337e-06 0
c p weight -3633 0.99999000000000005 0
c p weight 3634 1 0
c p weight -3634 1 0
c p weight 3635 1 0
c p weight -3635 1 0
c p weight 3636 3.3333333333333337e-06 0
c p weight -3636 0.99999000000000005 0
c p weight 3637 1 0
c p weight -3637 1 0
c p weight 3638 1 0
c p weight -3638 1 0
c p weight 3639 3.3333333333333337e-06 0
c p weight -3639 0.99999000000000005 0
c p weight 3640 1 0
c p weight -3640 1 0
c p weight 3641 1 0
c p weight -3641 1 0
c p weight 3642 3.3333333333333337e-06 0
c p weight -3642 0.99999000000000005 0
c p weight 3643 1 0
c p weight -3643 1 0
c p weight 3644 1 0
c p weight -3644 1 0
c p weight 3645 3.3333333333333337e-06 0
c p weight -3645 0.99999000000000005 0
c p weight 3646 1 0
c p weight -3646 1 0
c p weight 3647 1 0
c p weight -3647 1 0
c p weight 3648 3.3333333333333337e-06 0
c p weight -3648 0.99999000000000005 0
c p weight 3649 1 0
c p weight -3649 1 0
c p weight 3650 1 0
c p weight -3650 1 0
c p weight 3651 3.3333333333333337e-06 0
c p weight -3651 0.99999000000000005 0
c p weight 3652 1 0
c p weight -3652 1 0
c p weight 3653 1 0
c p weight -3653 1 0
c p weight 3654 3.3333333333333337e-06 0
c p weight -3654 0.99999000000000005 0
c p weight 3655 1 0
c p weight -3655 1 0
c p weight 3656 1 0
c p weight -3656 1 0
c p weight 3657 6.6666666666666671e-07 0
c p weight -3657 0.99999000000000005 0
c p weight 3658 1 0
c p weight -3658 1 0
c p weight 3659 1 0
c p weight -3659 1 0
c p weight 3660 1 0
c p weight -3660 1 0
c p weight 3661 1 0
c p weight -3661 1 0
c p weight 3662 3.3333333333333337e-06 0
c p weight -3662 0.99999000000000005 0
c p weight 3663 1 0
c p weight -3663 1 0
c p weight 3664 1 0
c p weight -3664 1 0
c p weight 3665 3.3333333333333337e-06 0
c p weight -3665 0.99999000000000005 0
c p weight 3666 1 0
c p weight -3666 1 0
c p weight 3667 1 0
c p weight -3667 1 0
c p weight 3668 3.3333333333333337e-06 0
c p weight -3668 0.99999000000000005 0
c p weight 3669 1 0
c p weight -3669 1 0
c p weight 3670 1 0
c p weight -3670 1 0
c p weight 3671 3.3333333333333337e-06 0
c p weight -3671 0.99999000000000005 0
c p weight 3672 1 0
c p weight -3672 1 0
c p weight 3673 1 0
c p weight -3673 1 0
c p weight 3674 3.3333333333333337e-06 0
c p weight -3674 0.99999000000000005 0
c p weight 3675 1 0
c p weight -3675 1 0
c p weight 3676 1 0
c p weight -3676 1 0
c p weight 3677 3.3333333333333337e-06 0
c p weight -3677 0.99999000000000005 0
c p weight 3678 1 0
c p weight -3678 1 0
c p weight 3679 1 0
c p weight -3679 1 0
c p weight 3680 3.3333333333333337e-06 0
c p weight -3680 0.99999000000000005 0
c p weight 3681 1 0
c p weight -3681 1 0
c p weight 3682 1 0
c p weight -3682 1 0
c p weight 3683 3.3333333333333337e-06 0
c p weight -3683 0.99999000000000005 0
c p weight 3684 1 0
c p weight -3684 1 0
c p weight 3685 1 0
c p weight -3685 1 0
c p weight 3686 3.3333333333333337e-06 0
c p weight -3686 0.99999000000000005 0
c p weight 3687 1 0
c p weight -3687 1 0
c p weight 3688 1 0
c p weight -3688 1 0
c p weight 3689 3.3333333333333337e-06 0
c p weight -3689 0.99999000000000005 0
c p weight 3690 1 0
c p weight -3690 1 0
c p weight 3691 1 0
c p weight -3691 1 0
c p weight 3692 3.3333333333333337e-06 0
c p weight -3692 0.99999000000000005 0
c p weight 3693 1 0
c p weight -3693 1 0
c p weight 3694 1 0
c p weight -3694 1 0
c p weight 3695 3.3333333333333337e-06 0
c p weight -3695 0.99999000000000005 0
c p weight 3696 1 0
c p weight -3696 1 0
c p weight 3697 1 0
c p weight -3697 1 0
c p weight 3698 3.3333333333333337e-06 0
c p weight -3698 0.99999000000000005 0
c p weight 3699 1 0
c p weight -3699 1 0
c p weight 3700 1 0
c p weight -3700 1 0
c p weight 3701 3.3333333333333337e-06 0
c p weight -3701 0.99999000000000005 0
c p weight 3702 1 0
c p weight -3702 1 0
c p weight 3703 1 0
c p weight -3703 1 0
c p weight 3704 3.3333333333333337e-06 0
c p weight -3704 0.99999000000000005 0
c p weight 3705 1 0
c p weight -3705 1 0
c p weight 3706 1 0
c p weight -3706 1 0
c p weight 3707 3.3333333333333337e-06 0
c p weight -3707 0.99999000000000005 0
c p weight 3708 1 0
c p weight -3708 1 0
c p weight 3709 1 0
c p weight -3709 1 0
c p weight 3710 3.3333333333333337e-06 0
c p weight -3710 0.99999000000000005 0
c p weight 3711 1 0
c p weight -3711 1 0
c p weight 3712 1 0
c p weight -3712 1 0
c p weight 3713 3.3333333333333337e-06 0
c p weight -3713 0.99999000000000005 0
c p weight 3714 1 0
c p weight -3714 1 0
c p weight 3715 1 0
c p weight -3715 1 0
c p weight 3716 3.3333333333333337e-06 0
c p weight -3716 0.99999000000000005 0
c p weight 3717 1 0
c p weight -3717 1 0
c p weight 3718 1 0
c p weight -3718 1 0
c p weight 3719 6.6666666666666671e-07 0
c p weight -3719 0.99999000000000005 0
c p weight 3720 1 0
c p weight -3720 1 0
c p weight 3721 1 0
c p weight -3721 1 0
c p weight 3722 1 0
c p weight -3722 1 0
c p weight 3723 1 0
c p weight -3723 1 0
c p weight 3724 3.3333333333333337e-06 0
c p weight -3724 0.99999000000000005 0
c p weight 3725 1 0
c p weight -3725 1 0
c p weight 3726 1 0
c p weight -3726 1 0
c p weight 3727 3.3333333333333337e-06 0
c p weight -3727 0.99999000000000005 0
c p weight 3728 1 0
c p weight -3728 1 0
c p weight 3729 1 0
c p weight -3729 1 0
c p weight 3730 3.3333333333333337e-06 0
c p weight -3730 0.99999000000000005 0
c p weight 3731 1 0
c p weight -3731 1 0
c p weight 3732 1 0
c p weight -3732 1 0
c p weight 3733 3.3333333333333337e-06 0
c p weight -3733 0.99999000000000005 0
c p weight 3734 1 0
c p weight -3734 1 0
c p weight 3735 1 0
c p weight -3735 1 0
c p weight 3736 3.3333333333333337e-06 0
c p weight -3736 0.99999000000000005 0
c p weight 3737 1 0
c p weight -3737 1 0
c p weight 3738 1 0
c p weight -3738 1 0
c p weight 3739 3.3333333333333337e-06 0
c p weight -3739 0.99999000000000005 0
c p weight 3740 1 0
c p weight -3740 1 0
c p weight 3741 1 0
c p weight -3741 1 0
c p weight 3742 3.3333333333333337e-06 0
c p weight -3742 0.99999000000000005 0
c p weight 3743 1 0
c p weight -3743 1 0
c p weight 3744 1 0
c p weight -3744 1 0
c p weight 3745 3.3333333333333337e-06 0
c p weight -3745 0.99999000000000005 0
c p weight 3746 1 0
c p weight -3746 1 0
c p weight 3747 1 0
c p weight -3747 1 0
c p weight 3748 3.3333333333333337e-06 0
c p weight -3748 0.99999000000000005 0
c p weight 3749 1 0
c p weight -3749 1 0
c p weight 3750 1 0
c p weight -3750 1 0
c p weight 3751 3.3333333333333337e-06 0
c p weight -3751 0.99999000000000005 0
c p weight 3752 1 0
c p weight -3752 1 0
c p weight 3753 1 0
c p weight -3753 1 0
c p weight 3754 3.3333333333333337e-06 0
c p weight -3754 0.99999000000000005 0
c p weight 3755 1 0
c p weight -3755 1 0
c p weight 3756 1 0
c p weight -3756 1 0
c p weight 3757 3.3333333333333337e-06 0
c p weight -3757 0.99999000000000005 0
c p weight 3758 1 0
c p weight -3758 1 0
c p weight 3759 1 0
c p weight -3759 1 0
c p weight 3760 3.3333333333333337e-06 0
c p weight -3760 0.99999000000000005 0
c p weight 3761 1 0
c p weight -3761 1 0
c p weight 3762 1 0
c p weight -3762 1 0
c p weight 3763 3.3333333333333337e-06 0
c p weight -3763 0.99999000000000005 0
c p weight 3764 1 0
c p weight -3764 1 0
c p weight 3765 1 0
c p weight -3765 1 0
c p weight 3766 3.3333333333333337e-06 0
c p weight -3766 0.99999000000000005 0
c p weight 3767 1 0
c p weight -3767 1 0
c p weight 3768 1 0
c p weight -3768 1 0
c p weight 3769 3.3333333333333337e-06 0
c p weight -3769 0.99999000000000005 0
c p weight 3770 1 0
c p weight -3770 1 0
c p weight 3771 1 0
c p weight -3771 1 0
c p weight 3772 3.3333333333333337e-06 0
c p weight -3772 0.99999000000000005 0
c p weight 3773 1 0
c p weight -3773 1 0
c p weight 3774 1 0
c p weight -3774 1 0
c p weight 3775 3.3333333333333337e-06 0
c p weight -3775 0.99999000000000005 0
c p weight 3776 1 0
c p weight -3776 1 0
c p weight 3777 1 0
c p weight -3777 1 0
c p weight 3778 3.3333333333333337e-06 0
c p weight -3778 0.99999000000000005 0
c p weight 3779 1 0
c p weight -3779 1 0
c p weight 3780 1 0
c p weight -3780 1 0
c p weight 3781 6.6666666666666671e-07 0
c p weight -3781 0.99999000000000005 0
c p weight 3782 1 0
c p weight -3782 1 0
c p weight 3783 1 0
c p weight -3783 1 0
c p weight 3784 1 0
c p weight -3784 1 0
c p weight 3785 1 0
c p weight -3785 1 0
c p weight 3786 3.3333333333333337e-06 0
c p weight -3786 0.99999000000000005 0
c p weight 3787 1 0
c p weight -3787 1 0
c p weight 3788 1 0
c p weight -3788 1 0
c p weight 3789 3.3333333333333337e-06 0
c p weight -3789 0.99999000000000005 0
c p weight 3790 1 0
c p weight -3790 1 0
c p weight 3791 1 0
c p weight -3791 1 0
c p weight 3792 3.3333333333333337e-06 0
c p weight -3792 0.99999000000000005 0
c p weight 3793 1 0
c p weight -3793 1 0
c p weight 3794 1 0
c p weight -3794 1 0
c p weight 3795 3.3333333333333337e-06 0
c p weight -3795 0.99999000000000005 0
c p weight 3796 1 0
c p weight -3796 1 0
c p weight 3797 1 0
c p weight -3797 1 0
c p weight 3798 3.3333333333333337e-06 0
c p weight -3798 0.99999000000000005 0
c p weight 3799 1 0
c p weight -3799 1 0
c p weight 3800 1 0
c p weight -3800 1 0
c p weight 3801 3.3333333333333337e-06 0
c p weight -3801 0.99999000000000005 0
c p weight 3802 1 0
c p weight -3802 1 0
c p weight 3803 1 0
c p weight -3803 1 0
c p weight 3804 3.3333333333333337e-06 0
c p weight -3804 0.99999000000000005 0
c p weight 3805 1 0
c p weight -3805 1 0
c p weight 3806 1 0
c p weight -3806 1 0
c p weight 3807 3.3333333333333337e-06 0
c p weight -3807 0.99999000000000005 0
c p weight 3808 1 0
c p weight -3808 1 0
c p weight 3809 1 0
c p weight -3809 1 0
c p weight 3810 3.3333333333333337e-06 0
c p weight -3810 0.99999000000000005 0
c p weight 3811 1 0
c p weight -3811 1 0
c p weight 3812 1 0
c p weight -3812 1 0
c p weight 3813 3.3333333333333337e-06 0
c p weight -3813 0.99999000000000005 0
c p weight 3814 1 0
c p weight -3814 1 0
c p weight 3815 1 0
c p weight -3815 1 0
c p weight 3816 3.3333333333333337e-06 0
c p weight -3816 0.99999000000000005 0
c p weight 3817 1 0
c p weight -3817 1 0
c p weight 3818 1 0
c p weight -3818 1 0
c p weight 3819 3.3333333333333337e-06 0
c p weight -3819 0.99999000000000005 0
c p weight 3820 1 0
c p weight -3820 1 0
c p weight 3821 1 0
c p weight -3821 1 0
c p weight 3822 3.3333333333333337e-06 0
c p weight -3822 0.99999000000000005 0
c p weight 3823 1 0
c p weight -3823 1 0
c p weight 3824 1 0
c p weight -3824 1 0
c p weight 3825 3.3333333333333337e-06 0
c p weight -3825 0.99999000000000005 0
c p weight 3826 1 0
c p weight -3826 1 0
c p weight 3827 1 0
c p weight -3827 1 0
c p weight 3828 3.3333333333333337e-06 0
c p weight -3828 0.99999000000000005 0
c p weight 3829 1 0
c p weight -3829 1 0
c p weight 3830 1 0
c p weight -3830 1 0
c p weight 3831 3.3333333333333337e-06 0
c p weight -3831 0.99999000000000005 0
c p weight 3832 1 0
c p weight -3832 1 0
c p weight 3833 1 0
c p weight -3833 1 0
c p weight 3834 3.3333333333333337e-06 0
c p weight -3834 0.99999000000000005 0
c p weight 3835 1 0
c p weight -3835 1 0
c p weight 3836 1 0
c p weight -3836 1 0
c p weight 3837 3.3333333333333337e-06 0
c p weight -3837 0.99999000000000005 0
c p weight 3838 1 0
c p weight -3838 1 0
c p weight 3839 1 0
c p weight -3839 1 0
c p weight 3840 3.3333333333333337e-06 0
c p weight -3840 0.99999000000000005 0
c p weight 3841 1 0
c p weight -3841 1 0
c p weight 3842 1 0
c p weight -3842 1 0
c p weight 3843 6.6666666666666671e-07 0
c p weight -3843 0.99999000000000005 0
c p weight 3844 1 0
c p weight -3844 1 0
c p weight 3845 1 0
c p weight -3845 1 0
c p weight 3846 1 0
c p weight -3846 1 0
c p weight 3847 1 0
c p weight -3847 1 0
c p weight 3848 3.3333333333333337e-06 0
c p weight -3848 0.99999000000000005 0
c p weight 3849 1 0
c p weight -3849 1 0
c p weight 3850 1 0
c p weight -3850 1 0
c p weight 3851 3.3333333333333337e-06 0
c p weight -3851 0.99999000000000005 0
c p weight 3852 1 0
c p weight -3852 1 0
c p weight 3853 1 0
c p weight -3853 1 0
c p weight 3854 3.3333333333333337e-06 0
c p weight -3854 0.99999000000000005 0
c p weight 3855 1 0
c p weight -3855 1 0
c p weight 3856 1 0
c p weight -3856 1 0
c p weight 3857 3.3333333333333337e-06 0
c p weight -3857 0.99999000000000005 0
c p weight 3858 1 0
c p weight -3858 1 0
c p weight 3859 1 0
c p weight -3859 1 0
c p weight 3860 3.3333333333333337e-06 0
c p weight -3860 0.99999000000000005 0
c p weight 3861 1 0
c p weight -3861 1 0
c p weight 3862 1 0
c p weight -3862 1 0
c p weight 3863 3.3333333333333337e-06 0
c p weight -3863 0.99999000000000005 0
c p weight 3864 1 0
c p weight -3864 1 0
c p weight 3865 1 0
c p weight -3865 1 0
c p weight 3866 3.3333333333333337e-06 0
c p weight -3866 0.99999000000000005 0
c p weight 3867 1 0
c p weight -3867 1 0
c p weight 3868 1 0
c p weight -3868 1 0
c p weight 3869 3.3333333333333337e-06 0
c p weight -3869 0.99999000000000005 0
c p weight 3870 1 0
c p weight -3870 1 0
c p weight 3871 1 0
c p weight -3871 1 0
c p weight 3872 3.3333333333333337e-06 0
c p weight -3872 0.99999000000000005 0
c p weight 3873 1 0
c p weight -3873 1 0
c p weight 3874 1 0
c p weight -3874 1 0
c p weight 3875 3.3333333333333337e-06 0
c p weight -3875 0.99999000000000005 0
c p weight 3876 1 0
c p weight -3876 1 0
c p weight 3877 1 0
c p weight -3877 1 0
c p weight 3878 3.3333333333333337e-06 0
c p weight -3878 0.99999000000000005 0
c p weight 3879 1 0
c p weight -3879 1 0
c p weight 3880 1 0
c p weight -3880 1 0
c p weight 3881 3.3333333333333337e-06 0
c p weight -3881 0.99999000000000005 0
c p weight 3882 1 0
c p weight -3882 1 0
c p weight 3883 1 0
c p weight -3883 1 0
c p weight 3884 3.3333333333333337e-06 0
c p weight -3884 0.99999000000000005 0
c p weight 3885 1 0
c p weight -3885 1 0
c p weight 3886 1 0
c p weight -3886 1 0
c p weight 3887 3.3333333333333337e-06 0
c p weight -3887 0.99999000000000005 0
c p weight 3888 1 0
c p weight -3888 1 0
c p weight 3889 1 0
c p weight -3889 1 0
c p weight 3890 3.3333333333333337e-06 0
c p weight -3890 0.99999000000000005 0
c p weight 3891 1 0
c p weight -3891 1 0
c p weight 3892 1 0
c p weight -3892 1 0
c p weight 3893 3.3333333333333337e-06 0
c p weight -3893 0.99999000000000005 0
c p weight 3894 1 0
c p weight -3894 1 0
c p weight 3895 1 0
c p weight -3895 1 0
c p weight 3896 3.3333333333333337e-06 0
c p weight -3896 0.99999000000000005 0
c p weight 3897 1 0
c p weight -3897 1 0
c p weight 3898 1 0
c p weight -3898 1 0
c p weight 3899 3.3333333333333337e-06 0
c p weight -3899 0.99999000000000005 0
c p weight 3900 1 0
c p weight -3900 1 0
c p weight 3901 1 0
c p weight -3901 1 0
c p weight 3902 3.3333333333333337e-06 0
c p weight -3902 0.99999000000000005 0
c p weight 3903 1 0
c p weight -3903 1 0
c p weight 3904 1 0
c p weight -3904 1 0
c p weight 3905 6.6666666666666671e-07 0
c p weight -3905 0.99999000000000005 0
c p weight 3906 1 0
c p weight -3906 1 0
c p weight 3907 1 0
c p weight -3907 1 0
c p weight 3908 1 0
c p weight -3908 1 0
c p weight 3909 1 0
c p weight -3909 1 0
c p weight 3910 3.3333333333333337e-06 0
c p weight -3910 0.99999000000000005 0
c p weight 3911 1 0
c p weight -3911 1 0
c p weight 3912 1 0
c p weight -3912 1 0
c p weight 3913 3.3333333333333337e-06 0
c p weight -3913 0.99999000000000005 0
c p weight 3914 1 0
c p weight -3914 1 0
c p weight 3915 1 0
c p weight -3915 1 0
c p weight 3916 3.3333333333333337e-06 0
c p weight -3916 0.99999000000000005 0
c p weight 3917 1 0
c p weight -3917 1 0
c p weight 3918 1 0
c p weight -3918 1 0
c p weight 3919 3.3333333333333337e-06 0
c p weight -3919 0.99999000000000005 0
c p weight 3920 1 0
c p weight -3920 1 0
c p weight 3921 1 0
c p weight -3921 1 0
c p weight 3922 3.3333333333333337e-06 0
c p weight -3922 0.99999000000000005 0
c p weight 3923 1 0
c p weight -3923 1 0
c p weight 3924 1 0
c p weight -3924 1 0
c p weight 3925 3.3333333333333337e-06 0
c p weight -3925 0.99999000000000005 0
c p weight 3926 1 0
c p weight -3926 1 0
c p weight 3927 1 0
c p weight -3927 1 0
c p weight 3928 3.3333333333333337e-06 0
c p weight -3928 0.99999000000000005 0
c p weight 3929 1 0
c p weight -3929 1 0
c p weight 3930 1 0
c p weight -3930 1 0
c p weight 3931 3.3333333333333337e-06 0
c p weight -3931 0.99999000000000005 0
c p weight 3932 1 0
c p weight -3932 1 0
c p weight 3933 1 0
c p weight -3933 1 0
c p weight 3934 3.3333333333333337e-06 0
c p weight -3934 0.99999000000000005 0
c p weight 3935 1 0
c p weight -3935 1 0
c p weight 3936 1 0
c p weight -3936 1 0
c p weight 3937 3.3333333333333337e-06 0
c p weight -3937 0.99999000000000005 0
c p weight 3938 1 0
c p weight -3938 1 0
c p weight 3939 1 0
c p weight -3939 1 0
c p weight 3940 3.3333333333333337e-06 0
c p weight -3940 0.99999000000000005 0
c p weight 3941 1 0
c p weight -3941 1 0
c p weight 3942 1 0
c p weight -3942 1 0
c p weight 3943 3.3333333333333337e-06 0
c p weight -3943 0.99999000000000005 0
c p weight 3944 1 0
c p weight -3944 1 0
c p weight 3945 1 0
c p weight -3945 1 0
c p weight 3946 3.3333333333333337e-06 0
c p weight -3946 0.99999000000000005 0
c p weight 3947 1 0
c p weight -3947 1 0
c p weight 3948 1 0
c p weight -3948 1 0
c p weight 3949 3.3333333333333337e-06 0
c p weight -3949 0.99999000000000005 0
c p weight 3950 1 0
c p weight -3950 1 0
c p weight 3951 1 0
c p weight -3951 1 0
c p weight 3952 3.3333333333333337e-06 0
c p weight -3952 0.99999000000000005 0
c p weight 3953 1 0
c p weight -3953 1 0
c p weight 3954 1 0
c p weight -3954 1 0
c p weight 3955 3.3333333333333337e-06 0
c p weight -3955 0.99999000000000005 0
c p weight 3956 1 0
c p weight -3956 1 0
c p weight 3957 1 0
c p weight -3957 1 0
c p weight 3958 3.3333333333333337e-06 0
c p weight -3958 0.99999000000000005 0
c p weight 3959 1 0
c p weight -3959 1 0
c p weight 3960 1 0
c p weight -3960 1 0
c p weight 3961 3.3333333333333337e-06 0
c p weight -3961 0.99999000000000005 0
c p weight 3962 1 0
c p weight -3962 1 0
c p weight 3963 1 0
c p weight -3963 1 0
c p weight 3964 3.3333333333333337e-06 0
c p weight -3964 0.99999000000000005 0
c p weight 3965 1 0
c p weight -3965 1 0
c p weight 3966 1 0
c p weight -3966 1 0
c p weight 3967 6.6666666666666671e-07 0
c p weight -3967 0.99999000000000005 0
c p weight 3968 1 0
c p weight -3968 1 0
c p weight 3969 1 0
c p weight -3969 1 0
c p weight 3970 1 0
c p weight -3970 1 0
c p weight 3971 1 0
c p weight -3971 1 0
c p weight 3972 3.3333333333333337e-06 0
c p weight -3972 0.99999000000000005 0
c p weight 3973 1 0
c p weight -3973 1 0
c p weight 3974 1 0
c p weight -3974 1 0
c p weight 3975 3.3333333333333337e-06 0
c p weight -3975 0.99999000000000005 0
c p weight 3976 1 0
c p weight -3976 1 0
c p weight 3977 1 0
c p weight -3977 1 0
c p weight 3978 3.3333333333333337e-06 0
c p weight -3978 0.99999000000000005 0
c p weight 3979 1 0
c p weight -3979 1 0
c p weight 3980 1 0
c p weight -3980 1 0
c p weight 3981 3.3333333333333337e-06 0
c p weight -3981 0.99999000000000005 0
c p weight 3982 1 0
c p weight -3982 1 0
c p weight 3983 1 0
c p weight -3983 1 0
c p weight 3984 3.3333333333333337e-06 0
c p weight -3984 0.99999000000000005 0
c p weight 3985 1 0
c p weight -3985 1 0
c p weight 3986 1 0
c p weight -3986 1 0
c p weight 3987 3.3333333333333337e-06 0
c p weight -3987 0.99999000000000005 0
c p weight 3988 1 0
c p weight -3988 1 0
c p weight 3989 1 0
c p weight -3989 1 0
c p weight 3990 3.3333333333333337e-06 0
c p weight -3990 0.99999000000000005 0
c p weight 3991 1 0
c p weight -3991 1 0
c p weight 3992 1 0
c p weight -3992 1 0
c p weight 3993 3.3333333333333337e-06 0
c p weight -3993 0.99999000000000005 0
c p weight 3994 1 0
c p weight -3994 1 0
c p weight 3995 1 0
c p weight -3995 1 0
c p weight 3996 3.3333333333333337e-06 0
c p weight -3996 0.99999000000000005 0
c p weight 3997 1 0
c p weight -3997 1 0
c p weight 3998 1 0
c p weight -3998 1 0
c p weight 3999 3.3333333333333337e-06 0
c p weight -3999 0.99999000000000005 0
c p weight 4000 1 0
c p weight -4000 1 0
c p weight 4001 1 0
c p weight -4001 1 0
c p weight 4002 3.3333333333333337e-06 0
c p weight -4002 0.99999000000000005 0
c p weight 4003 1 0
c p weight -4003 1 0
c p weight 4004 1 0
c p weight -4004 1 0
c p weight 4005 3.3333333333333337e-06 0
c p weight -4005 0.99999000000000005 0
c p weight 4006 1 0
c p weight -4006 1 0
c p weight 4007 1 0
c p weight -4007 1 0
c p weight 4008 3.3333333333333337e-06 0
c p weight -4008 0.99999000000000005 0
c p weight 4009 1 0
c p weight -4009 1 0
c p weight 4010 1 0
c p weight -4010 1 0
c p weight 4011 3.3333333333333337e-06 0
c p weight -4011 0.99999000000000005 0
c p weight 4012 1 0
c p weight -4012 1 0
c p weight 4013 1 0
c p weight -4013 1 0
c p weight 4014 3.3333333333333337e-06 0
c p weight -4014 0.99999000000000005 0
c p weight 4015 1 0
c p weight -4015 1 0
c p weight 4016 1 0
c p weight -4016 1 0
c p weight 4017 3.3333333333333337e-06 0
c p weight -4017 0.99999000000000005 0
c p weight 4018 1 0
c p weight -4018 1 0
c p weight 4019 1 0
c p weight -4019 1 0
c p weight 4020 3.3333333333333337e-06 0
c p weight -4020 0.99999000000000005 0
c p weight 4021 1 0
c p weight -4021 1 0
c p weight 4022 1 0
c p weight -4022 1 0
c p weight 4023 3.3333333333333337e-06 0
c p weight -4023 0.99999000000000005 0
c p weight 4024 1 0
c p weight -4024 1 0
c p weight 4025 1 0
c p weight -4025 1 0
c p weight 4026 3.3333333333333337e-06 0
c p weight -4026 0.99999000000000005 0
c p weight 4027 1 0
c p weight -4027 1 0
c p weight 4028 1 0
c p weight -4028 1 0
c p weight 4029 3.3333333333333337e-06 0
c p weight -4029 0.99999000000000005 0
c p weight 4030 1 0
c p weight -4030 1 0
c p weight 4031 1 0
c p weight -4031 1 0
c p weight 4032 3.3333333333333337e-06 0
c p weight -4032 0.99999000000000005 0
c p weight 4033 1 0
c p weight -4033 1 0
c p weight 4034 1 0
c p weight -4034 1 0
c p weight 4035 3.3333333333333337e-06 0
c p weight -4035 0.99999000000000005 0
c p weight 4036 1 0
c p weight -4036 1 0
c p weight 4037 1 0
c p weight -4037 1 0
c p weight 4038 3.3333333333333337e-06 0
c p weight -4038 0.99999000000000005 0
c p weight 4039 1 0
c p weight -4039 1 0
c p weight 4040 1 0
c p weight -4040 1 0
c p weight 4041 3.3333333333333337e-06 0
c p weight -4041 0.99999000000000005 0
c p weight 4042 1 0
c p weight -4042 1 0
c p weight 4043 1 0
c p weight -4043 1 0
c p weight 4044 3.3333333333333337e-06 0
c p weight -4044 0.99999000000000005 0
c p weight 4045 1 0
c p weight -4045 1 0
c p weight 4046 1 0
c p weight -4046 1 0
c p weight 4047 3.3333333333333337e-06 0
c p weight -4047 0.99999000000000005 0
c p weight 4048 1 0
c p weight -4048 1 0
c p weight 4049 1 0
c p weight -4049 1 0
c p weight 4050 3.3333333333333337e-06 0
c p weight -4050 0.99999000000000005 0
c p weight 4051 1 0
c p weight -4051 1 0
c p weight 4052 1 0
c p weight -4052 1 0
c p weight 4053 3.3333333333333337e-06 0
c p weight -4053 0.99999000000000005 0
c p weight 4054 1 0
c p weight -4054 1 0
c p weight 4055 1 0
c p weight -4055 1 0
c p weight 4056 3.3333333333333337e-06 0
c p weight -4056 0.99999000000000005 0
c p weight 4057 1 0
c p weight -4057 1 0
c p weight 4058 1 0
c p weight -4058 1 0
c p weight 4059 3.3333333333333337e-06 0
c p weight -4059 0.99999000000000005 0
c p weight 4060 1 0
c p weight -4060 1 0
c p weight 4061 1 0
c p weight -4061 1 0
c p weight 4062 3.3333333333333337e-06 0
c p weight -4062 0.99999000000000005 0
c p weight 4063 1 0
c p weight -4063 1 0
c p weight 4064 1 0
c p weight -4064 1 0
c p weight 4065 6.6666666666666675e-06 0
c p weight -4065 0.99999333333333329 0
c p weight 4066 6.6666666666666675e-06 0
c p weight -4066 0.99999333333333329 0
c p weight 4067 6.6666666666666675e-06 0
c p weight -4067 0.99999333333333329 0
c p weight 4068 6.6666666666666675e-06 0
c p weight -4068 0.99999333333333329 0
c p weight 4069 6.6666666666666675e-06 0
c p weight -4069 0.99999333333333329 0
c p weight 4070 6.6666666666666675e-06 0
c p weight -4070 0.99999333333333329 0
c p weight 4071 6.6666666666666675e-06 0
c p weight -4071 0.99999333333333329 0
c p weight 4072 6.6666666666666675e-06 0
c p weight -4072 0.99999333333333329 0
c p weight 4073 6.6666666666666671e-07 0
c p weight -4073 0.99999000000000005 0
c p weight 4074 1 0
c p weight -4074 1 0
c p weight 4075 1 0
c p weight -4075 1 0
c p weight 4076 1 0
c p weight -4076 1 0
c p weight 4077 1 0
c p weight -4077 1 0
c p weight 4078 3.3333333333333337e-06 0
c p weight -4078 0.99999000000000005 0
c p weight 4079 1 0
c p weight -4079 1 0
c p weight 4080 1 0
c p weight -4080 1 0
c p weight 4081 3.3333333333333337e-06 0
c p weight -4081 0.99999000000000005 0
c p weight 4082 1 0
c p weight -4082 1 0
c p weight 4083 1 0
c p weight -4083 1 0
c p weight 4084 3.3333333333333337e-06 0
c p weight -4084 0.99999000000000005 0
c p weight 4085 1 0
c p weight -4085 1 0
c p weight 4086 1 0
c p weight -4086 1 0
c p weight 4087 3.3333333333333337e-06 0
c p weight -4087 0.99999000000000005 0
c p weight 4088 1 0
c p weight -4088 1 0
c p weight 4089 1 0
c p weight -4089 1 0
c p weight 4090 3.3333333333333337e-06 0
c p weight -4090 0.99999000000000005 0
c p weight 4091 1 0
c p weight -4091 1 0
c p weight 4092 1 0
c p weight -4092 1 0
c p weight 4093 3.3333333333333337e-06 0
c p weight -4093 0.99999000000000005 0
c p weight 4094 1 0
c p weight -4094 1 0
c p weight 4095 1 0
c p weight -4095 1 0
c p weight 4096 3.3333333333333337e-06 0
c p weight -4096 0.99999000000000005 0
c p weight 4097 1 0
c p weight -4097 1 0
c p weight 4098 1 0
c p weight -4098 1 0
c p weight 4099 3.3333333333333337e-06 0
c p weight -4099 0.99999000000000005 0
c p weight 4100 1 0
c p weight -4100 1 0
c p weight 4101 1 0
c p weight -4101 1 0
c p weight 4102 3.3333333333333337e-06 0
c p weight -4102 0.99999000000000005 0
c p weight 4103 1 0
c p weight -4103 1 0
c p weight 4104 1 0
c p weight -4104 1 0
c p weight 4105 3.3333333333333337e-06 0
c p weight -4105 0.99999000000000005 0
c p weight 4106 1 0
c p weight -4106 1 0
c p weight 4107 1 0
c p weight -4107 1 0
c p weight 4108 3.3333333333333337e-06 0
c p weight -4108 0.99999000000000005 0
c p weight 4109 1 0
c p weight -4109 1 0
c p weight 4110 1 0
c p weight -4110 1 0
c p weight 4111 3.3333333333333337e-06 0
c p weight -4111 0.99999000000000005 0
c p weight 4112 1 0
c p weight -4112 1 0
c p weight 4113 1 0
c p weight -4113 1 0
c p weight 4114 3.3333333333333337e-06 0
c p weight -4114 0.99999000000000005 0
c p weight 4115 1 0
c p weight -4115 1 0
c p weight 4116 1 0
c p weight -4116 1 0
c p weight 4117 3.3333333333333337e-06 0
c p weight -4117 0.99999000000000005 0
c p weight 4118 1 0
c p weight -4118 1 0
c p weight 4119 1 0
c p weight -4119 1 0
c p weight 4120 3.3333333333333337e-06 0
c p weight -4120 0.99999000000000005 0
c p weight 4121 1 0
c p weight -4121 1 0
c p weight 4122 1 0
c p weight -4122 1 0
c p weight 4123 6.6666666666666671e-07 0
c p weight -4123 0.99999000000000005 0
c p weight 4124 1 0
c p weight -4124 1 0
c p weight 4125 1 0
c p weight -4125 1 0
c p weight 4126 1 0
c p weight -4126 1 0
c p weight 4127 1 0
c p weight -4127 1 0
c p weight 4128 3.3333333333333337e-06 0
c p weight -4128 0.99999000000000005 0
c p weight 4129 1 0
c p weight -4129 1 0
c p weight 4130 1 0
c p weight -4130 1 0
c p weight 4131 3.3333333333333337e-06 0
c p weight -4131 0.99999000000000005 0
c p weight 4132 1 0
c p weight -4132 1 0
c p weight 4133 1 0
c p weight -4133 1 0
c p weight 4134 3.3333333333333337e-06 0
c p weight -4134 0.99999000000000005 0
c p weight 4135 1 0
c p weight -4135 1 0
c p weight 4136 1 0
c p weight -4136 1 0
c p weight 4137 3.3333333333333337e-06 0
c p weight -4137 0.99999000000000005 0
c p weight 4138 1 0
c p weight -4138 1 0
c p weight 4139 1 0
c p weight -4139 1 0
c p weight 4140 3.3333333333333337e-06 0
c p weight -4140 0.99999000000000005 0
c p weight 4141 1 0
c p weight -4141 1 0
c p weight 4142 1 0
c p weight -4142 1 0
c p weight 4143 3.3333333333333337e-06 0
c p weight -4143 0.99999000000000005 0
c p weight 4144 1 0
c p weight -4144 1 0
c p weight 4145 1 0
c p weight -4145 1 0
c p weight 4146 3.3333333333333337e-06 0
c p weight -4146 0.99999000000000005 0
c p weight 4147 1 0
c p weight -4147 1 0
c p weight 4148 1 0
c p weight -4148 1 0
c p weight 4149 3.3333333333333337e-06 0
c p weight -4149 0.99999000000000005 0
c p weight 4150 1 0
c p weight -4150 1 0
c p weight 4151 1 0
c p weight -4151 1 0
c p weight 4152 3.3333333333333337e-06 0
c p weight -4152 0.99999000000000005 0
c p weight 4153 1 0
c p weight -4153 1 0
c p weight 4154 1 0
c p weight -4154 1 0
c p weight 4155 3.3333333333333337e-06 0
c p weight -4155 0.99999000000000005 0
c p weight 4156 1 0
c p weight -4156 1 0
c p weight 4157 1 0
c p weight -4157 1 0
c p weight 4158 3.3333333333333337e-06 0
c p weight -4158 0.99999000000000005 0
c p weight 4159 1 0
c p weight -4159 1 0
c p weight 4160 1 0
c p weight -4160 1 0
c p weight 4161 3.3333333333333337e-06 0
c p weight -4161 0.99999000000000005 0
c p weight 4162 1 0
c p weight -4162 1 0
c p weight 4163 1 0
c p weight -4163 1 0
c p weight 4164 3.3333333333333337e-06 0
c p weight -4164 0.99999000000000005 0
c p weight 4165 1 0
c p weight -4165 1 0
c p weight 4166 1 0
c p weight -4166 1 0
c p weight 4167 3.3333333333333337e-06 0
c p weight -4167 0.99999000000000005 0
c p weight 4168 1 0
c p weight -4168 1 0
c p weight 4169 1 0
c p weight -4169 1 0
c p weight 4170 3.3333333333333337e-06 0
c p weight -4170 0.99999000000000005 0
c p weight 4171 1 0
c p weight -4171 1 0
c p weight 4172 1 0
c p weight -4172 1 0
c p weight 4173 6.6666666666666671e-07 0
c p weight -4173 0.99999000000000005 0
c p weight 4174 1 0
c p weight -4174 1 0
c p weight 4175 1 0
c p weight -4175 1 0
c p weight 4176 1 0
c p weight -4176 1 0
c p weight 4177 1 0
c p weight -4177 1 0
c p weight 4178 3.3333333333333337e-06 0
c p weight -4178 0.99999000000000005 0
c p weight 4179 1 0
c p weight -4179 1 0
c p weight 4180 1 0
c p weight -4180 1 0
c p weight 4181 3.3333333333333337e-06 0
c p weight -4181 0.99999000000000005 0
c p weight 4182 1 0
c p weight -4182 1 0
c p weight 4183 1 0
c p weight -4183 1 0
c p weight 4184 3.3333333333333337e-06 0
c p weight -4184 0.99999000000000005 0
c p weight 4185 1 0
c p weight -4185 1 0
c p weight 4186 1 0
c p weight -4186 1 0
c p weight 4187 3.3333333333333337e-06 0
c p weight -4187 0.99999000000000005 0
c p weight 4188 1 0
c p weight -4188 1 0
c p weight 4189 1 0
c p weight -4189 1 0
c p weight 4190 3.3333333333333337e-06 0
c p weight -4190 0.99999000000000005 0
c p weight 4191 1 0
c p weight -4191 1 0
c p weight 4192 1 0
c p weight -4192 1 0
c p weight 4193 3.3333333333333337e-06 0
c p weight -4193 0.99999000000000005 0
c p weight 4194 1 0
c p weight -4194 1 0
c p weight 4195 1 0
c p weight -4195 1 0
c p weight 4196 3.3333333333333337e-06 0
c p weight -4196 0.99999000000000005 0
c p weight 4197 1 0
c p weight -4197 1 0
c p weight 4198 1 0
c p weight -4198 1 0
c p weight 4199 3.3333333333333337e-06 0
c p weight -4199 0.99999000000000005 0
c p weight 4200 1 0
c p weight -4200 1 0
c p weight 4201 1 0
c p weight -4201 1 0
c p weight 4202 3.3333333333333337e-06 0
c p weight -4202 0.99999000000000005 0
c p weight 4203 1 0
c p weight -4203 1 0
c p weight 4204 1 0
c p weight -4204 1 0
c p weight 4205 3.3333333333333337e-06 0
c p weight -4205 0.99999000000000005 0
c p weight 4206 1 0
c p weight -4206 1 0
c p weight 4207 1 0
c p weight -4207 1 0
c p weight 4208 3.3333333333333337e-06 0
c p weight -4208 0.99999000000000005 0
c p weight 4209 1 0
c p weight -4209 1 0
c p weight 4210 1 0
c p weight -4210 1 0
c p weight 4211 3.3333333333333337e-06 0
c p weight -4211 0.99999000000000005 0
c p weight 4212 1 0
c p weight -4212 1 0
c p weight 4213 1 0
c p weight -4213 1 0
c p weight 4214 3.3333333333333337e-06 0
c p weight -4214 0.99999000000000005 0
c p weight 4215 1 0
c p weight -4215 1 0
c p weight 4216 1 0
c p weight -4216 1 0
c p weight 4217 3.3333333333333337e-06 0
c p weight -4217 0.99999000000000005 0
c p weight 4218 1 0
c p weight -4218 1 0
c p weight 4219 1 0
c p weight -4219 1 0
c p weight 4220 3.3333333333333337e-06 0
c p weight -4220 0.99999000000000005 0
c p weight 4221 1 0
c p weight -4221 1 0
c p weight 4222 1 0
c p weight -4222 1 0
c p weight 4223 6.6666666666666671e-07 0
c p weight -4223 0.99999000000000005 0
c p weight 4224 1 0
c p weight -4224 1 0
c p weight 4225 1 0
c p weight -4225 1 0
c p weight 4226 1 0
c p weight -4226 1 0
c p weight 4227 1 0
c p weight -4227 1 0
c p weight 4228 3.3333333333333337e-06 0
c p weight -4228 0.99999000000000005 0
c p weight 4229 1 0
c p weight -4229 1 0
c p weight 4230 1 0
c p weight -4230 1 0
c p weight 4231 3.3333333333333337e-06 0
c p weight -4231 0.99999000000000005 0
c p weight 4232 1 0
c p weight -4232 1 0
c p weight 4233 1 0
c p weight -4233 1 0
c p weight 4234 3.3333333333333337e-06 0
c p weight -4234 0.99999000000000005 0
c p weight 4235 1 0
c p weight -4235 1 0
c p weight 4236 1 0
c p weight -4236 1 0
c p weight 4237 3.3333333333333337e-06 0
c p weight -4237 0.99999000000000005 0
c p weight 4238 1 0
c p weight -4238 1 0
c p weight 4239 1 0
c p weight -4239 1 0
c p weight 4240 3.3333333333333337e-06 0
c p weight -4240 0.99999000000000005 0
c p weight 4241 1 0
c p weight -4241 1 0
c p weight 4242 1 0
c p weight -4242 1 0
c p weight 4243 3.3333333333333337e-06 0
c p weight -4243 0.99999000000000005 0
c p weight 4244 1 0
c p weight -4244 1 0
c p weight 4245 1 0
c p weight -4245 1 0
c p weight 4246 3.3333333333333337e-06 0
c p weight -4246 0.99999000000000005 0
c p weight 4247 1 0
c p weight -4247 1 0
c p weight 4248 1 0
c p weight -4248 1 0
c p weight 4249 3.3333333333333337e-06 0
c p weight -4249 0.99999000000000005 0
c p weight 4250 1 0
c p weight -4250 1 0
c p weight 4251 1 0
c p weight -4251 1 0
c p weight 4252 3.3333333333333337e-06 0
c p weight -4252 0.99999000000000005 0
c p weight 4253 1 0
c p weight -4253 1 0
c p weight 4254 1 0
c p weight -4254 1 0
c p weight 4255 3.3333333333333337e-06 0
c p weight -4255 0.99999000000000005 0
c p weight 4256 1 0
c p weight -4256 1 0
c p weight 4257 1 0
c p weight -4257 1 0
c p weight 4258 3.3333333333333337e-06 0
c p weight -4258 0.99999000000000005 0
c p weight 4259 1 0
c p weight -4259 1 0
c p weight 4260 1 0
c p weight -4260 1 0
c p weight 4261 3.3333333333333337e-06 0
c p weight -4261 0.99999000000000005 0
c p weight 4262 1 0
c p weight -4262 1 0
c p weight 4263 1 0
c p weight -4263 1 0
c p weight 4264 3.3333333333333337e-06 0
c p weight -4264 0.99999000000000005 0
c p weight 4265 1 0
c p weight -4265 1 0
c p weight 4266 1 0
c p weight -4266 1 0
c p weight 4267 3.3333333333333337e-06 0
c p weight -4267 0.99999000000000005 0
c p weight 4268 1 0
c p weight -4268 1 0
c p weight 4269 1 0
c p weight -4269 1 0
c p weight 4270 3.3333333333333337e-06 0
c p weight -4270 0.99999000000000005 0
c p weight 4271 1 0
c p weight -4271 1 0
c p weight 4272 1 0
c p weight -4272 1 0
c p weight 4273 6.6666666666666671e-07 0
c p weight -4273 0.99999000000000005 0
c p weight 4274 1 0
c p weight -4274 1 0
c p weight 4275 1 0
c p weight -4275 1 0
c p weight 4276 1 0
c p weight -4276 1 0
c p weight 4277 1 0
c p weight -4277 1 0
c p weight 4278 3.3333333333333337e-06 0
c p weight -4278 0.99999000000000005 0
c p weight 4279 1 0
c p weight -4279 1 0
c p weight 4280 1 0
c p weight -4280 1 0
c p weight 4281 3.3333333333333337e-06 0
c p weight -4281 0.99999000000000005 0
c p weight 4282 1 0
c p weight -4282 1 0
c p weight 4283 1 0
c p weight -4283 1 0
c p weight 4284 3.3333333333333337e-06 0
c p weight -4284 0.99999000000000005 0
c p weight 4285 1 0
c p weight -4285 1 0
c p weight 4286 1 0
c p weight -4286 1 0
c p weight 4287 3.3333333333333337e-06 0
c p weight -4287 0.99999000000000005 0
c p weight 4288 1 0
c p weight -4288 1 0
c p weight 4289 1 0
c p weight -4289 1 0
c p weight 4290 3.3333333333333337e-06 0
c p weight -4290 0.99999000000000005 0
c p weight 4291 1 0
c p weight -4291 1 0
c p weight 4292 1 0
c p weight -4292 1 0
c p weight 4293 3.3333333333333337e-06 0
c p weight -4293 0.99999000000000005 0
c p weight 4294 1 0
c p weight -4294 1 0
c p weight 4295 1 0
c p weight -4295 1 0
c p weight 4296 3.3333333333333337e-06 0
c p weight -4296 0.99999000000000005 0
c p weight 4297 1 0
c p weight -4297 1 0
c p weight 4298 1 0
c p weight -4298 1 0
c p weight 4299 3.3333333333333337e-06 0
c p weight -4299 0.99999000000000005 0
c p weight 4300 1 0
c p weight -4300 1 0
c p weight 4301 1 0
c p weight -4301 1 0
c p weight 4302 3.3333333333333337e-06 0
c p weight -4302 0.99999000000000005 0
c p weight 4303 1 0
c p weight -4303 1 0
c p weight 4304 1 0
c p weight -4304 1 0
c p weight 4305 3.3333333333333337e-06 0
c p weight -4305 0.99999000000000005 0
c p weight 4306 1 0
c p weight -4306 1 0
c p weight 4307 1 0
c p weight -4307 1 0
c p weight 4308 3.3333333333333337e-06 0
c p weight -4308 0.99999000000000005 0
c p weight 4309 1 0
c p weight -4309 1 0
c p weight 4310 1 0
c p weight -4310 1 0
c p weight 4311 3.3333333333333337e-06 0
c p weight -4311 0.99999000000000005 0
c p weight 4312 1 0
c p weight -4312 1 0
c p weight 4313 1 0
c p weight -4313 1 0
c p weight 4314 3.3333333333333337e-06 0
c p weight -4314 0.99999000000000005 0
c p weight 4315 1 0
c p weight -4315 1 0
c p weight 4316 1 0
c p weight -4316 1 0
c p weight 4317 3.3333333333333337e-06 0
c p weight -4317 0.99999000000000005 0
c p weight 4318 1 0
c p weight -4318 1 0
c p weight 4319 1 0
c p weight -4319 1 0
c p weight 4320 3.3333333333333337e-06 0
c p weight -4320 0.99999000000000005 0
c p weight 4321 1 0
c p weight -4321 1 0
c p weight 4322 1 0
c p weight -4322 1 0
c p weight 4323 6.6666666666666671e-07 0
c p weight -4323 0.99999000000000005 0
c p weight 4324 1 0
c p weight -4324 1 0
c p weight 4325 1 0
c p weight -4325 1 0
c p weight 4326 1 0
c p weight -4326 1 0
c p weight 4327 1 0
c p weight -4327 1 0
c p weight 4328 3.3333333333333337e-06 0
c p weight -4328 0.99999000000000005 0
c p weight 4329 1 0
c p weight -4329 1 0
c p weight 4330 1 0
c p weight -4330 1 0
c p weight 4331 3.3333333333333337e-06 0
c p weight -4331 0.99999000000000005 0
c p weight 4332 1 0
c p weight -4332 1 0
c p weight 4333 1 0
c p weight -4333 1 0
c p weight 4334 3.3333333333333337e-06 0
c p weight -4334 0.99999000000000005 0
c p weight 4335 1 0
c p weight -4335 1 0
c p weight 4336 1 0
c p weight -4336 1 0
c p weight 4337 3.3333333333333337e-06 0
c p weight -4337 0.99999000000000005 0
c p weight 4338 1 0
c p weight -4338 1 0
c p weight 4339 1 0
c p weight -4339 1 0
c p weight 4340 3.3333333333333337e-06 0
c p weight -4340 0.99999000000000005 0
c p weight 4341 1 0
c p weight -4341 1 0
c p weight 4342 1 0
c p weight -4342 1 0
c p weight 4343 3.3333333333333337e-06 0
c p weight -4343 0.99999000000000005 0
c p weight 4344 1 0
c p weight -4344 1 0
c p weight 4345 1 0
c p weight -4345 1 0
c p weight 4346 3.3333333333333337e-06 0
c p weight -4346 0.99999000000000005 0
c p weight 4347 1 0
c p weight -4347 1 0
c p weight 4348 1 0
c p weight -4348 1 0
c p weight 4349 3.3333333333333337e-06 0
c p weight -4349 0.99999000000000005 0
c p weight 4350 1 0
c p weight -4350 1 0
c p weight 4351 1 0
c p weight -4351 1 0
c p weight 4352 3.3333333333333337e-06 0
c p weight -4352 0.99999000000000005 0
c p weight 4353 1 0
c p weight -4353 1 0
c p weight 4354 1 0
c p weight -4354 1 0
c p weight 4355 3.3333333333333337e-06 0
c p weight -4355 0.99999000000000005 0
c p weight 4356 1 0
c p weight -4356 1 0
c p weight 4357 1 0
c p weight -4357 1 0
c p weight 4358 3.3333333333333337e-06 0
c p weight -4358 0.99999000000000005 0
c p weight 4359 1 0
c p weight -4359 1 0
c p weight 4360 1 0
c p weight -4360 1 0
c p weight 4361 3.3333333333333337e-06 0
c p weight -4361 0.99999000000000005 0
c p weight 4362 1 0
c p weight -4362 1 0
c p weight 4363 1 0
c p weight -4363 1 0
c p weight 4364 3.3333333333333337e-06 0
c p weight -4364 0.99999000000000005 0
c p weight 4365 1 0
c p weight -4365 1 0
c p weight 4366 1 0
c p weight -4366 1 0
c p weight 4367 3.3333333333333337e-06 0
c p weight -4367 0.99999000000000005 0
c p weight 4368 1 0
c p weight -4368 1 0
c p weight 4369 1 0
c p weight -4369 1 0
c p weight 4370 3.3333333333333337e-06 0
c p weight -4370 0.99999000000000005 0
c p weight 4371 1 0
c p weight -4371 1 0
c p weight 4372 1 0
c p weight -4372 1 0
c p weight 4373 6.6666666666666671e-07 0
c p weight -4373 0.99999000000000005 0
c p weight 4374 1 0
c p weight -4374 1 0
c p weight 4375 1 0
c p weight -4375 1 0
c p weight 4376 1 0
c p weight -4376 1 0
c p weight 4377 1 0
c p weight -4377 1 0
c p weight 4378 3.3333333333333337e-06 0
c p weight -4378 0.99999000000000005 0
c p weight 4379 1 0
c p weight -4379 1 0
c p weight 4380 1 0
c p weight -4380 1 0
c p weight 4381 3.3333333333333337e-06 0
c p weight -4381 0.99999000000000005 0
c p weight 4382 1 0
c p weight -4382 1 0
c p weight 4383 1 0
c p weight -4383 1 0
c p weight 4384 3.3333333333333337e-06 0
c p weight -4384 0.99999000000000005 0
c p weight 4385 1 0
c p weight -4385 1 0
c p weight 4386 1 0
c p weight -4386 1 0
c p weight 4387 3.3333333333333337e-06 0
c p weight -4387 0.99999000000000005 0
c p weight 4388 1 0
c p weight -4388 1 0
c p weight 4389 1 0
c p weight -4389 1 0
c p weight 4390 3.3333333333333337e-06 0
c p weight -4390 0.99999000000000005 0
c p weight 4391 1 0
c p weight -4391 1 0
c p weight 4392 1 0
c p weight -4392 1 0
c p weight 4393 3.3333333333333337e-06 0
c p weight -4393 0.99999000000000005 0
c p weight 4394 1 0
c p weight -4394 1 0
c p weight 4395 1 0
c p weight -4395 1 0
c p weight 4396 3.3333333333333337e-06 0
c p weight -4396 0.99999000000000005 0
c p weight 4397 1 0
c p weight -4397 1 0
c p weight 4398 1 0
c p weight -4398 1 0
c p weight 4399 3.3333333333333337e-06 0
c p weight -4399 0.99999000000000005 0
c p weight 4400 1 0
c p weight -4400 1 0
c p weight 4401 1 0
c p weight -4401 1 0
c p weight 4402 3.3333333333333337e-06 0
c p weight -4402 0.99999000000000005 0
c p weight 4403 1 0
c p weight -4403 1 0
c p weight 4404 1 0
c p weight -4404 1 0
c p weight 4405 3.3333333333333337e-06 0
c p weight -4405 0.99999000000000005 0
c p weight 4406 1 0
c p weight -4406 1 0
c p weight 4407 1 0
c p weight -4407 1 0
c p weight 4408 3.3333333333333337e-06 0
c p weight -4408 0.99999000000000005 0
c p weight 4409 1 0
c p weight -4409 1 0
c p weight 4410 1 0
c p weight -4410 1 0
c p weight 4411 3.3333333333333337e-06 0
c p weight -4411 0.99999000000000005 0
c p weight 4412 1 0
c p weight -4412 1 0
c p weight 4413 1 0
c p weight -4413 1 0
c p weight 4414 3.3333333333333337e-06 0
c p weight -4414 0.99999000000000005 0
c p weight 4415 1 0
c p weight -4415 1 0
c p weight 4416 1 0
c p weight -4416 1 0
c p weight 4417 3.3333333333333337e-06 0
c p weight -4417 0.99999000000000005 0
c p weight 4418 1 0
c p weight -4418 1 0
c p weight 4419 1 0
c p weight -4419 1 0
c p weight 4420 3.3333333333333337e-06 0
c p weight -4420 0.99999000000000005 0
c p weight 4421 1 0
c p weight -4421 1 0
c p weight 4422 1 0
c p weight -4422 1 0
c p weight 4423 6.6666666666666671e-07 0
c p weight -4423 0.99999000000000005 0
c p weight 4424 1 0
c p weight -4424 1 0
c p weight 4425 1 0
c p weight -4425 1 0
c p weight 4426 1 0
c p weight -4426 1 0
c p weight 4427 1 0
c p weight -4427 1 0
c p weight 4428 3.3333333333333337e-06 0
c p weight -4428 0.99999000000000005 0
c p weight 4429 1 0
c p weight -4429 1 0
c p weight 4430 1 0
c p weight -4430 1 0
c p weight 4431 3.3333333333333337e-06 0
c p weight -4431 0.99999000000000005 0
c p weight 4432 1 0
c p weight -4432 1 0
c p weight 4433 1 0
c p weight -4433 1 0
c p weight 4434 3.3333333333333337e-06 0
c p weight -4434 0.99999000000000005 0
c p weight 4435 1 0
c p weight -4435 1 0
c p weight 4436 1 0
c p weight -4436 1 0
c p weight 4437 3.3333333333333337e-06 0
c p weight -4437 0.99999000000000005 0
c p weight 4438 1 0
c p weight -4438 1 0
c p weight 4439 1 0
c p weight -4439 1 0
c p weight 4440 3.3333333333333337e-06 0
c p weight -4440 0.99999000000000005 0
c p weight 4441 1 0
c p weight -4441 1 0
c p weight 4442 1 0
c p weight -4442 1 0
c p weight 4443 3.3333333333333337e-06 0
c p weight -4443 0.99999000000000005 0
c p weight 4444 1 0
c p weight -4444 1 0
c p weight 4445 1 0
c p weight -4445 1 0
c p weight 4446 3.3333333333333337e-06 0
c p weight -4446 0.99999000000000005 0
c p weight 4447 1 0
c p weight -4447 1 0
c p weight 4448 1 0
c p weight -4448 1 0
c p weight 4449 3.3333333333333337e-06 0
c p weight -4449 0.99999000000000005 0
c p weight 4450 1 0
c p weight -4450 1 0
c p weight 4451 1 0
c p weight -4451 1 0
c p weight 4452 3.3333333333333337e-06 0
c p weight -4452 0.99999000000000005 0
c p weight 4453 1 0
c p weight -4453 1 0
c p weight 4454 1 0
c p weight -4454 1 0
c p weight 4455 3.3333333333333337e-06 0
c p weight -4455 0.99999000000000005 0
c p weight 4456 1 0
c p weight -4456 1 0
c p weight 4457 1 0
c p weight -4457 1 0
c p weight 4458 3.3333333333333337e-06 0
c p weight -4458 0.99999000000000005 0
c p weight 4459 1 0
c p weight -4459 1 0
c p weight 4460 1 0
c p weight -4460 1 0
c p weight 4461 3.3333333333333337e-06 0
c p weight -4461 0.99999000000000005 0
c p weight 4462 1 0
c p weight -4462 1 0
c p weight 4463 1 0
c p weight -4463 1 0
c p weight 4464 3.3333333333333337e-06 0
c p weight -4464 0.99999000000000005 0
c p weight 4465 1 0
c p weight -4465 1 0
c p weight 4466 1 0
c p weight -4466 1 0
c p weight 4467 3.3333333333333337e-06 0
c p weight -4467 0.99999000000000005 0
c p weight 4468 1 0
c p weight -4468 1 0
c p weight 4469 1 0
c p weight -4469 1 0
c p weight 4470 3.3333333333333337e-06 0
c p weight -4470 0.99999000000000005 0
c p weight 4471 1 0
c p weight -4471 1 0
c p weight 4472 1 0
c p weight -4472 1 0
c p weight 4473 6.6666666666666671e-07 0
c p weight -4473 0.99999000000000005 0
c p weight 4474 1 0
c p weight -4474 1 0
c p weight 4475 1 0
c p weight -4475 1 0
c p weight 4476 1 0
c p weight -4476 1 0
c p weight 4477 1 0
c p weight -4477 1 0
c p weight 4478 3.3333333333333337e-06 0
c p weight -4478 0.99999000000000005 0
c p weight 4479 1 0
c p weight -4479 1 0
c p weight 4480 1 0
c p weight -4480 1 0
c p weight 4481 3.3333333333333337e-06 0
c p weight -4481 0.99999000000000005 0
c p weight 4482 1 0
c p weight -4482 1 0
c p weight 4483 1 0
c p weight -4483 1 0
c p weight 4484 3.3333333333333337e-06 0
c p weight -4484 0.99999000000000005 0
c p weight 4485 1 0
c p weight -4485 1 0
c p weight 4486 1 0
c p weight -4486 1 0
c p weight 4487 3.3333333333333337e-06 0
c p weight -4487 0.99999000000000005 0
c p weight 4488 1 0
c p weight -4488 1 0
c p weight 4489 1 0
c p weight -4489 1 0
c p weight 4490 3.3333333333333337e-06 0
c p weight -4490 0.99999000000000005 0
c p weight 4491 1 0
c p weight -4491 1 0
c p weight 4492 1 0
c p weight -4492 1 0
c p weight 4493 3.3333333333333337e-06 0
c p weight -4493 0.99999000000000005 0
c p weight 4494 1 0
c p weight -4494 1 0
c p weight 4495 1 0
c p weight -4495 1 0
c p weight 4496 3.3333333333333337e-06 0
c p weight -4496 0.99999000000000005 0
c p weight 4497 1 0
c p weight -4497 1 0
c p weight 4498 1 0
c p weight -4498 1 0
c p weight 4499 3.3333333333333337e-06 0
c p weight -4499 0.99999000000000005 0
c p weight 4500 1 0
c p weight -4500 1 0
c p weight 4501 1 0
c p weight -4501 1 0
c p weight 4502 3.3333333333333337e-06 0
c p weight -4502 0.99999000000000005 0
c p weight 4503 1 0
c p weight -4503 1 0
c p weight 4504 1 0
c p weight -4504 1 0
c p weight 4505 3.3333333333333337e-06 0
c p weight -4505 0.99999000000000005 0
c p weight 4506 1 0
c p weight -4506 1 0
c p weight 4507 1 0
c p weight -4507 1 0
c p weight 4508 3.3333333333333337e-06 0
c p weight -4508 0.99999000000000005 0
c p weight 4509 1 0
c p weight -4509 1 0
c p weight 4510 1 0
c p weight -4510 1 0
c p weight 4511 3.3333333333333337e-06 0
c p weight -4511 0.99999000000000005 0
c p weight 4512 1 0
c p weight -4512 1 0
c p weight 4513 1 0
c p weight -4513 1 0
c p weight 4514 3.3333333333333337e-06 0
c p weight -4514 0.99999000000000005 0
c p weight 4515 1 0
c p weight -4515 1 0
c p weight 4516 1 0
c p weight -4516 1 0
c p weight 4517 3.3333333333333337e-06 0
c p weight -4517 0.99999000000000005 0
c p weight 4518 1 0
c p weight -4518 1 0
c p weight 4519 1 0
c p weight -4519 1 0
c p weight 4520 3.3333333333333337e-06 0
c p weight -4520 0.99999000000000005 0
c p weight 4521 1 0
c p weight -4521 1 0
c p weight 4522 1 0
c p weight -4522 1 0
c p weight 4523 6.6666666666666671e-07 0
c p weight -4523 0.99999000000000005 0
c p weight 4524 1 0
c p weight -4524 1 0
c p weight 4525 1 0
c p weight -4525 1 0
c p weight 4526 1 0
c p weight -4526 1 0
c p weight 4527 1 0
c p weight -4527 1 0
c p weight 4528 3.3333333333333337e-06 0
c p weight -4528 0.99999000000000005 0
c p weight 4529 1 0
c p weight -4529 1 0
c p weight 4530 1 0
c p weight -4530 1 0
c p weight 4531 3.3333333333333337e-06 0
c p weight -4531 0.99999000000000005 0
c p weight 4532 1 0
c p weight -4532 1 0
c p weight 4533 1 0
c p weight -4533 1 0
c p weight 4534 3.3333333333333337e-06 0
c p weight -4534 0.99999000000000005 0
c p weight 4535 1 0
c p weight -4535 1 0
c p weight 4536 1 0
c p weight -4536 1 0
c p weight 4537 3.3333333333333337e-06 0
c p weight -4537 0.99999000000000005 0
c p weight 4538 1 0
c p weight -4538 1 0
c p weight 4539 1 0
c p weight -4539 1 0
c p weight 4540 3.3333333333333337e-06 0
c p weight -4540 0.99999000000000005 0
c p weight 4541 1 0
c p weight -4541 1 0
c p weight 4542 1 0
c p weight -4542 1 0
c p weight 4543 3.3333333333333337e-06 0
c p weight -4543 0.99999000000000005 0
c p weight 4544 1 0
c p weight -4544 1 0
c p weight 4545 1 0
c p weight -4545 1 0
c p weight 4546 3.3333333333333337e-06 0
c p weight -4546 0.99999000000000005 0
c p weight 4547 1 0
c p weight -4547 1 0
c p weight 4548 1 0
c p weight -4548 1 0
c p weight 4549 3.3333333333333337e-06 0
c p weight -4549 0.99999000000000005 0
c p weight 4550 1 0
c p weight -4550 1 0
c p weight 4551 1 0
c p weight -4551 1 0
c p weight 4552 3.3333333333333337e-06 0
c p weight -4552 0.99999000000000005 0
c p weight 4553 1 0
c p weight -4553 1 0
c p weight 4554 1 0
c p weight -4554 1 0
c p weight 4555 3.3333333333333337e-06 0
c p weight -4555 0.99999000000000005 0
c p weight 4556 1 0
c p weight -4556 1 0
c p weight 4557 1 0
c p weight -4557 1 0
c p weight 4558 3.3333333333333337e-06 0
c p weight -4558 0.99999000000000005 0
c p weight 4559 1 0
c p weight -4559 1 0
c p weight 4560 1 0
c p weight -4560 1 0
c p weight 4561 3.3333333333333337e-06 0
c p weight -4561 0.99999000000000005 0
c p weight 4562 1 0
c p weight -4562 1 0
c p weight 4563 1 0
c p weight -4563 1 0
c p weight 4564 3.3333333333333337e-06 0
c p weight -4564 0.99999000000000005 0
c p weight 4565 1 0
c p weight -4565 1 0
c p weight 4566 1 0
c p weight -4566 1 0
c p weight 4567 3.3333333333333337e-06 0
c p weight -4567 0.99999000000000005 0
c p weight 4568 1 0
c p weight -4568 1 0
c p weight 4569 1 0
c p weight -4569 1 0
c p weight 4570 3.3333333333333337e-06 0
c p weight -4570 0.99999000000000005 0
c p weight 4571 1 0
c p weight -4571 1 0
c p weight 4572 1 0
c p weight -4572 1 0
c p weight 4573 6.6666666666666671e-07 0
c p weight -4573 0.99999000000000005 0
c p weight 4574 1 0
c p weight -4574 1 0
c p weight 4575 1 0
c p weight -4575 1 0
c p weight 4576 1 0
c p weight -4576 1 0
c p weight 4577 1 0
c p weight -4577 1 0
c p weight 4578 3.3333333333333337e-06 0
c p weight -4578 0.99999000000000005 0
c p weight 4579 1 0
c p weight -4579 1 0
c p weight 4580 1 0
c p weight -4580 1 0
c p weight 4581 3.3333333333333337e-06 0
c p weight -4581 0.99999000000000005 0
c p weight 4582 1 0
c p weight -4582 1 0
c p weight 4583 1 0
c p weight -4583 1 0
c p weight 4584 3.3333333333333337e-06 0
c p weight -4584 0.99999000000000005 0
c p weight 4585 1 0
c p weight -4585 1 0
c p weight 4586 1 0
c p weight -4586 1 0
c p weight 4587 3.3333333333333337e-06 0
c p weight -4587 0.99999000000000005 0
c p weight 4588 1 0
c p weight -4588 1 0
c p weight 4589 1 0
c p weight -4589 1 0
c p weight 4590 3.3333333333333337e-06 0
c p weight -4590 0.99999000000000005 0
c p weight 4591 1 0
c p weight -4591 1 0
c p weight 4592 1 0
c p weight -4592 1 0
c p weight 4593 3.3333333333333337e-06 0
c p weight -4593 0.99999000000000005 0
c p weight 4594 1 0
c p weight -4594 1 0
c p weight 4595 1 0
c p weight -4595 1 0
c p weight 4596 3.3333333333333337e-06 0
c p weight -4596 0.99999000000000005 0
c p weight 4597 1 0
c p weight -4597 1 0
c p weight 4598 1 0
c p weight -4598 1 0
c p weight 4599 3.3333333333333337e-06 0
c p weight -4599 0.99999000000000005 0
c p weight 4600 1 0
c p weight -4600 1 0
c p weight 4601 1 0
c p weight -4601 1 0
c p weight 4602 3.3333333333333337e-06 0
c p weight -4602 0.99999000000000005 0
c p weight 4603 1 0
c p weight -4603 1 0
c p weight 4604 1 0
c p weight -4604 1 0
c p weight 4605 3.3333333333333337e-06 0
c p weight -4605 0.99999000000000005 0
c p weight 4606 1 0
c p weight -4606 1 0
c p weight 4607 1 0
c p weight -4607 1 0
c p weight 4608 3.3333333333333337e-06 0
c p weight -4608 0.99999000000000005 0
c p weight 4609 1 0
c p weight -4609 1 0
c p weight 4610 1 0
c p weight -4610 1 0
c p weight 4611 3.3333333333333337e-06 0
c p weight -4611 0.99999000000000005 0
c p weight 4612 1 0
c p weight -4612 1 0
c p weight 4613 1 0
c p weight -4613 1 0
c p weight 4614 3.3333333333333337e-06 0
c p weight -4614 0.99999000000000005 0
c p weight 4615 1 0
c p weight -4615 1 0
c p weight 4616 1 0
c p weight -4616 1 0
c p weight 4617 3.3333333333333337e-06 0
c p weight -4617 0.99999000000000005 0
c p weight 4618 1 0
c p weight -4618 1 0
c p weight 4619 1 0
c p weight -4619 1 0
c p weight 4620 3.3333333333333337e-06 0
c p weight -4620 0.99999000000000005 0
c p weight 4621 1 0
c p weight -4621 1 0
c p weight 4622 1 0
c p weight -4622 1 0
c p weight 4623 6.6666666666666671e-07 0
c p weight -4623 0.99999000000000005 0
c p weight 4624 1 0
c p weight -4624 1 0
c p weight 4625 1 0
c p weight -4625 1 0
c p weight 4626 1 0
c p weight -4626 1 0
c p weight 4627 1 0
c p weight -4627 1 0
c p weight 4628 3.3333333333333337e-06 0
c p weight -4628 0.99999000000000005 0
c p weight 4629 1 0
c p weight -4629 1 0
c p weight 4630 1 0
c p weight -4630 1 0
c p weight 4631 3.3333333333333337e-06 0
c p weight -4631 0.99999000000000005 0
c p weight 4632 1 0
c p weight -4632 1 0
c p weight 4633 1 0
c p weight -4633 1 0
c p weight 4634 3.3333333333333337e-06 0
c p weight -4634 0.99999000000000005 0
c p weight 4635 1 0
c p weight -4635 1 0
c p weight 4636 1 0
c p weight -4636 1 0
c p weight 4637 3.3333333333333337e-06 0
c p weight -4637 0.99999000000000005 0
c p weight 4638 1 0
c p weight -4638 1 0
c p weight 4639 1 0
c p weight -4639 1 0
c p weight 4640 3.3333333333333337e-06 0
c p weight -4640 0.99999000000000005 0
c p weight 4641 1 0
c p weight -4641 1 0
c p weight 4642 1 0
c p weight -4642 1 0
c p weight 4643 3.3333333333333337e-06 0
c p weight -4643 0.99999000000000005 0
c p weight 4644 1 0
c p weight -4644 1 0
c p weight 4645 1 0
c p weight -4645 1 0
c p weight 4646 3.3333333333333337e-06 0
c p weight -4646 0.99999000000000005 0
c p weight 4647 1 0
c p weight -4647 1 0
c p weight 4648 1 0
c p weight -4648 1 0
c p weight 4649 3.3333333333333337e-06 0
c p weight -4649 0.99999000000000005 0
c p weight 4650 1 0
c p weight -4650 1 0
c p weight 4651 1 0
c p weight -4651 1 0
c p weight 4652 3.3333333333333337e-06 0
c p weight -4652 0.99999000000000005 0
c p weight 4653 1 0
c p weight -4653 1 0
c p weight 4654 1 0
c p weight -4654 1 0
c p weight 4655 3.3333333333333337e-06 0
c p weight -4655 0.99999000000000005 0
c p weight 4656 1 0
c p weight -4656 1 0
c p weight 4657 1 0
c p weight -4657 1 0
c p weight 4658 3.3333333333333337e-06 0
c p weight -4658 0.99999000000000005 0
c p weight 4659 1 0
c p weight -4659 1 0
c p weight 4660 1 0
c p weight -4660 1 0
c p weight 4661 3.3333333333333337e-06 0
c p weight -4661 0.99999000000000005 0
c p weight 4662 1 0
c p weight -4662 1 0
c p weight 4663 1 0
c p weight -4663 1 0
c p weight 4664 3.3333333333333337e-06 0
c p weight -4664 0.99999000000000005 0
c p weight 4665 1 0
c p weight -4665 1 0
c p weight 4666 1 0
c p weight -4666 1 0
c p weight 4667 3.3333333333333337e-06 0
c p weight -4667 0.99999000000000005 0
c p weight 4668 1 0
c p weight -4668 1 0
c p weight 4669 1 0
c p weight -4669 1 0
c p weight 4670 3.3333333333333337e-06 0
c p weight -4670 0.99999000000000005 0
c p weight 4671 1 0
c p weight -4671 1 0
c p weight 4672 1 0
c p weight -4672 1 0
c p weight 4673 6.6666666666666671e-07 0
c p weight -4673 0.99999000000000005 0
c p weight 4674 1 0
c p weight -4674 1 0
c p weight 4675 1 0
c p weight -4675 1 0
c p weight 4676 1 0
c p weight -4676 1 0
c p weight 4677 1 0
c p weight -4677 1 0
c p weight 4678 3.3333333333333337e-06 0
c p weight -4678 0.99999000000000005 0
c p weight 4679 1 0
c p weight -4679 1 0
c p weight 4680 1 0
c p weight -4680 1 0
c p weight 4681 3.3333333333333337e-06 0
c p weight -4681 0.99999000000000005 0
c p weight 4682 1 0
c p weight -4682 1 0
c p weight 4683 1 0
c p weight -4683 1 0
c p weight 4684 3.3333333333333337e-06 0
c p weight -4684 0.99999000000000005 0
c p weight 4685 1 0
c p weight -4685 1 0
c p weight 4686 1 0
c p weight -4686 1 0
c p weight 4687 3.3333333333333337e-06 0
c p weight -4687 0.99999000000000005 0
c p weight 4688 1 0
c p weight -4688 1 0
c p weight 4689 1 0
c p weight -4689 1 0
c p weight 4690 3.3333333333333337e-06 0
c p weight -4690 0.99999000000000005 0
c p weight 4691 1 0
c p weight -4691 1 0
c p weight 4692 1 0
c p weight -4692 1 0
c p weight 4693 3.3333333333333337e-06 0
c p weight -4693 0.99999000000000005 0
c p weight 4694 1 0
c p weight -4694 1 0
c p weight 4695 1 0
c p weight -4695 1 0
c p weight 4696 3.3333333333333337e-06 0
c p weight -4696 0.99999000000000005 0
c p weight 4697 1 0
c p weight -4697 1 0
c p weight 4698 1 0
c p weight -4698 1 0
c p weight 4699 3.3333333333333337e-06 0
c p weight -4699 0.99999000000000005 0
c p weight 4700 1 0
c p weight -4700 1 0
c p weight 4701 1 0
c p weight -4701 1 0
c p weight 4702 3.3333333333333337e-06 0
c p weight -4702 0.99999000000000005 0
c p weight 4703 1 0
c p weight -4703 1 0
c p weight 4704 1 0
c p weight -4704 1 0
c p weight 4705 3.3333333333333337e-06 0
c p weight -4705 0.99999000000000005 0
c p weight 4706 1 0
c p weight -4706 1 0
c p weight 4707 1 0
c p weight -4707 1 0
c p weight 4708 3.3333333333333337e-06 0
c p weight -4708 0.99999000000000005 0
c p weight 4709 1 0
c p weight -4709 1 0
c p weight 4710 1 0
c p weight -4710 1 0
c p weight 4711 3.3333333333333337e-06 0
c p weight -4711 0.99999000000000005 0
c p weight 4712 1 0
c p weight -4712 1 0
c p weight 4713 1 0
c p weight -4713 1 0
c p weight 4714 3.3333333333333337e-06 0
c p weight -4714 0.99999000000000005 0
c p weight 4715 1 0
c p weight -4715 1 0
c p weight 4716 1 0
c p weight -4716 1 0
c p weight 4717 3.3333333333333337e-06 0
c p weight -4717 0.99999000000000005 0
c p weight 4718 1 0
c p weight -4718 1 0
c p weight 4719 1 0
c p weight -4719 1 0
c p weight 4720 3.3333333333333337e-06 0
c p weight -4720 0.99999000000000005 0
c p weight 4721 1 0
c p weight -4721 1 0
c p weight 4722 1 0
c p weight -4722 1 0
c p weight 4723 6.6666666666666671e-07 0
c p weight -4723 0.99999000000000005 0
c p weight 4724 1 0
c p weight -4724 1 0
c p weight 4725 1 0
c p weight -4725 1 0
c p weight 4726 1 0
c p weight -4726 1 0
c p weight 4727 1 0
c p weight -4727 1 0
c p weight 4728 3.3333333333333337e-06 0
c p weight -4728 0.99999000000000005 0
c p weight 4729 1 0
c p weight -4729 1 0
c p weight 4730 1 0
c p weight -4730 1 0
c p weight 4731 3.3333333333333337e-06 0
c p weight -4731 0.99999000000000005 0
c p weight 4732 1 0
c p weight -4732 1 0
c p weight 4733 1 0
c p weight -4733 1 0
c p weight 4734 3.3333333333333337e-06 0
c p weight -4734 0.99999000000000005 0
c p weight 4735 1 0
c p weight -4735 1 0
c p weight 4736 1 0
c p weight -4736 1 0
c p weight 4737 3.3333333333333337e-06 0
c p weight -4737 0.99999000000000005 0
c p weight 4738 1 0
c p weight -4738 1 0
c p weight 4739 1 0
c p weight -4739 1 0
c p weight 4740 3.3333333333333337e-06 0
c p weight -4740 0.99999000000000005 0
c p weight 4741 1 0
c p weight -4741 1 0
c p weight 4742 1 0
c p weight -4742 1 0
c p weight 4743 3.3333333333333337e-06 0
c p weight -4743 0.99999000000000005 0
c p weight 4744 1 0
c p weight -4744 1 0
c p weight 4745 1 0
c p weight -4745 1 0
c p weight 4746 3.3333333333333337e-06 0
c p weight -4746 0.99999000000000005 0
c p weight 4747 1 0
c p weight -4747 1 0
c p weight 4748 1 0
c p weight -4748 1 0
c p weight 4749 3.3333333333333337e-06 0
c p weight -4749 0.99999000000000005 0
c p weight 4750 1 0
c p weight -4750 1 0
c p weight 4751 1 0
c p weight -4751 1 0
c p weight 4752 3.3333333333333337e-06 0
c p weight -4752 0.99999000000000005 0
c p weight 4753 1 0
c p weight -4753 1 0
c p weight 4754 1 0
c p weight -4754 1 0
c p weight 4755 3.3333333333333337e-06 0
c p weight -4755 0.99999000000000005 0
c p weight 4756 1 0
c p weight -4756 1 0
c p weight 4757 1 0
c p weight -4757 1 0
c p weight 4758 3.3333333333333337e-06 0
c p weight -4758 0.99999000000000005 0
c p weight 4759 1 0
c p weight -4759 1 0
c p weight 4760 1 0
c p weight -4760 1 0
c p weight 4761 3.3333333333333337e-06 0
c p weight -4761 0.99999000000000005 0
c p weight 4762 1 0
c p weight -4762 1 0
c p weight 4763 1 0
c p weight -4763 1 0
c p weight 4764 3.3333333333333337e-06 0
c p weight -4764 0.99999000000000005 0
c p weight 4765 1 0
c p weight -4765 1 0
c p weight 4766 1 0
c p weight -4766 1 0
c p weight 4767 3.3333333333333337e-06 0
c p weight -4767 0.99999000000000005 0
c p weight 4768 1 0
c p weight -4768 1 0
c p weight 4769 1 0
c p weight -4769 1 0
c p weight 4770 3.3333333333333337e-06 0
c p weight -4770 0.99999000000000005 0
c p weight 4771 1 0
c p weight -4771 1 0
c p weight 4772 1 0
c p weight -4772 1 0
c p weight 4773 6.6666666666666671e-07 0
c p weight -4773 0.99999000000000005 0
c p weight 4774 1 0
c p weight -4774 1 0
c p weight 4775 1 0
c p weight -4775 1 0
c p weight 4776 1 0
c p weight -4776 1 0
c p weight 4777 1 0
c p weight -4777 1 0
c p weight 4778 3.3333333333333337e-06 0
c p weight -4778 0.99999000000000005 0
c p weight 4779 1 0
c p weight -4779 1 0
c p weight 4780 1 0
c p weight -4780 1 0
c p weight 4781 3.3333333333333337e-06 0
c p weight -4781 0.99999000000000005 0
c p weight 4782 1 0
c p weight -4782 1 0
c p weight 4783 1 0
c p weight -4783 1 0
c p weight 4784 3.3333333333333337e-06 0
c p weight -4784 0.99999000000000005 0
c p weight 4785 1 0
c p weight -4785 1 0
c p weight 4786 1 0
c p weight -4786 1 0
c p weight 4787 3.3333333333333337e-06 0
c p weight -4787 0.99999000000000005 0
c p weight 4788 1 0
c p weight -4788 1 0
c p weight 4789 1 0
c p weight -4789 1 0
c p weight 4790 3.3333333333333337e-06 0
c p weight -4790 0.99999000000000005 0
c p weight 4791 1 0
c p weight -4791 1 0
c p weight 4792 1 0
c p weight -4792 1 0
c p weight 4793 3.3333333333333337e-06 0
c p weight -4793 0.99999000000000005 0
c p weight 4794 1 0
c p weight -4794 1 0
c p weight 4795 1 0
c p weight -4795 1 0
c p weight 4796 3.3333333333333337e-06 0
c p weight -4796 0.99999000000000005 0
c p weight 4797 1 0
c p weight -4797 1 0
c p weight 4798 1 0
c p weight -4798 1 0
c p weight 4799 3.3333333333333337e-06 0
c p weight -4799 0.99999000000000005 0
c p weight 4800 1 0
c p weight -4800 1 0
c p weight 4801 1 0
c p weight -4801 1 0
c p weight 4802 3.3333333333333337e-06 0
c p weight -4802 0.99999000000000005 0
c p weight 4803 1 0
c p weight -4803 1 0
c p weight 4804 1 0
c p weight -4804 1 0
c p weight 4805 3.3333333333333337e-06 0
c p weight -4805 0.99999000000000005 0
c p weight 4806 1 0
c p weight -4806 1 0
c p weight 4807 1 0
c p weight -4807 1 0
c p weight 4808 3.3333333333333337e-06 0
c p weight -4808 0.99999000000000005 0
c p weight 4809 1 0
c p weight -4809 1 0
c p weight 4810 1 0
c p weight -4810 1 0
c p weight 4811 3.3333333333333337e-06 0
c p weight -4811 0.99999000000000005 0
c p weight 4812 1 0
c p weight -4812 1 0
c p weight 4813 1 0
c p weight -4813 1 0
c p weight 4814 3.3333333333333337e-06 0
c p weight -4814 0.99999000000000005 0
c p weight 4815 1 0
c p weight -4815 1 0
c p weight 4816 1 0
c p weight -4816 1 0
c p weight 4817 3.3333333333333337e-06 0
c p weight -4817 0.99999000000000005 0
c p weight 4818 1 0
c p weight -4818 1 0
c p weight 4819 1 0
c p weight -4819 1 0
c p weight 4820 3.3333333333333337e-06 0
c p weight -4820 0.99999000000000005 0
c p weight 4821 1 0
c p weight -4821 1 0
c p weight 4822 1 0
c p weight -4822 1 0
c p weight 4823 6.6666666666666671e-07 0
c p weight -4823 0.99999000000000005 0
c p weight 4824 1 0
c p weight -4824 1 0
c p weight 4825 1 0
c p weight -4825 1 0
c p weight 4826 1 0
c p weight -4826 1 0
c p weight 4827 1 0
c p weight -4827 1 0
c p weight 4828 3.3333333333333337e-06 0
c p weight -4828 0.99999000000000005 0
c p weight 4829 1 0
c p weight -4829 1 0
c p weight 4830 1 0
c p weight -4830 1 0
c p weight 4831 3.3333333333333337e-06 0
c p weight -4831 0.99999000000000005 0
c p weight 4832 1 0
c p weight -4832 1 0
c p weight 4833 1 0
c p weight -4833 1 0
c p weight 4834 3.3333333333333337e-06 0
c p weight -4834 0.99999000000000005 0
c p weight 4835 1 0
c p weight -4835 1 0
c p weight 4836 1 0
c p weight -4836 1 0
c p weight 4837 3.3333333333333337e-06 0
c p weight -4837 0.99999000000000005 0
c p weight 4838 1 0
c p weight -4838 1 0
c p weight 4839 1 0
c p weight -4839 1 0
c p weight 4840 3.3333333333333337e-06 0
c p weight -4840 0.99999000000000005 0
c p weight 4841 1 0
c p weight -4841 1 0
c p weight 4842 1 0
c p weight -4842 1 0
c p weight 4843 3.3333333333333337e-06 0
c p weight -4843 0.99999000000000005 0
c p weight 4844 1 0
c p weight -4844 1 0
c p weight 4845 1 0
c p weight -4845 1 0
c p weight 4846 3.3333333333333337e-06 0
c p weight -4846 0.99999000000000005 0
c p weight 4847 1 0
c p weight -4847 1 0
c p weight 4848 1 0
c p weight -4848 1 0
c p weight 4849 3.3333333333333337e-06 0
c p weight -4849 0.99999000000000005 0
c p weight 4850 1 0
c p weight -4850 1 0
c p weight 4851 1 0
c p weight -4851 1 0
c p weight 4852 3.3333333333333337e-06 0
c p weight -4852 0.99999000000000005 0
c p weight 4853 1 0
c p weight -4853 1 0
c p weight 4854 1 0
c p weight -4854 1 0
c p weight 4855 3.3333333333333337e-06 0
c p weight -4855 0.99999000000000005 0
c p weight 4856 1 0
c p weight -4856 1 0
c p weight 4857 1 0
c p weight -4857 1 0
c p weight 4858 3.3333333333333337e-06 0
c p weight -4858 0.99999000000000005 0
c p weight 4859 1 0
c p weight -4859 1 0
c p weight 4860 1 0
c p weight -4860 1 0
c p weight 4861 3.3333333333333337e-06 0
c p weight -4861 0.99999000000000005 0
c p weight 4862 1 0
c p weight -4862 1 0
c p weight 4863 1 0
c p weight -4863 1 0
c p weight 4864 3.3333333333333337e-06 0
c p weight -4864 0.99999000000000005 0
c p weight 4865 1 0
c p weight -4865 1 0
c p weight 4866 1 0
c p weight -4866 1 0
c p weight 4867 3.3333333333333337e-06 0
c p weight -4867 0.99999000000000005 0
c p weight 4868 1 0
c p weight -4868 1 0
c p weight 4869 1 0
c p weight -4869 1 0
c p weight 4870 3.3333333333333337e-06 0
c p weight -4870 0.99999000000000005 0
c p weight 4871 1 0
c p weight -4871 1 0
c p weight 4872 1 0
c p weight -4872 1 0
c p weight 4873 6.6666666666666671e-07 0
c p weight -4873 0.99999000000000005 0
c p weight 4874 1 0
c p weight -4874 1 0
c p weight 4875 1 0
c p weight -4875 1 0
c p weight 4876 1 0
c p weight -4876 1 0
c p weight 4877 1 0
c p weight -4877 1 0
c p weight 4878 3.3333333333333337e-06 0
c p weight -4878 0.99999000000000005 0
c p weight 4879 1 0
c p weight -4879 1 0
c p weight 4880 1 0
c p weight -4880 1 0
c p weight 4881 3.3333333333333337e-06 0
c p weight -4881 0.99999000000000005 0
c p weight 4882 1 0
c p weight -4882 1 0
c p weight 4883 1 0
c p weight -4883 1 0
c p weight 4884 3.3333333333333337e-06 0
c p weight -4884 0.99999000000000005 0
c p weight 4885 1 0
c p weight -4885 1 0
c p weight 4886 1 0
c p weight -4886 1 0
c p weight 4887 3.3333333333333337e-06 0
c p weight -4887 0.99999000000000005 0
c p weight 4888 1 0
c p weight -4888 1 0
c p weight 4889 1 0
c p weight -4889 1 0
c p weight 4890 3.3333333333333337e-06 0
c p weight -4890 0.99999000000000005 0
c p weight 4891 1 0
c p weight -4891 1 0
c p weight 4892 1 0
c p weight -4892 1 0
c p weight 4893 3.3333333333333337e-06 0
c p weight -4893 0.99999000000000005 0
c p weight 4894 1 0
c p weight -4894 1 0
c p weight 4895 1 0
c p weight -4895 1 0
c p weight 4896 3.3333333333333337e-06 0
c p weight -4896 0.99999000000000005 0
c p weight 4897 1 0
c p weight -4897 1 0
c p weight 4898 1 0
c p weight -4898 1 0
c p weight 4899 3.3333333333333337e-06 0
c p weight -4899 0.99999000000000005 0
c p weight 4900 1 0
c p weight -4900 1 0
c p weight 4901 1 0
c p weight -4901 1 0
c p weight 4902 3.3333333333333337e-06 0
c p weight -4902 0.99999000000000005 0
c p weight 4903 1 0
c p weight -4903 1 0
c p weight 4904 1 0
c p weight -4904 1 0
c p weight 4905 3.3333333333333337e-06 0
c p weight -4905 0.99999000000000005 0
c p weight 4906 1 0
c p weight -4906 1 0
c p weight 4907 1 0
c p weight -4907 1 0
c p weight 4908 3.3333333333333337e-06 0
c p weight -4908 0.99999000000000005 0
c p weight 4909 1 0
c p weight -4909 1 0
c p weight 4910 1 0
c p weight -4910 1 0
c p weight 4911 3.3333333333333337e-06 0
c p weight -4911 0.99999000000000005 0
c p weight 4912 1 0
c p weight -4912 1 0
c p weight 4913 1 0
c p weight -4913 1 0
c p weight 4914 3.3333333333333337e-06 0
c p weight -4914 0.99999000000000005 0
c p weight 4915 1 0
c p weight -4915 1 0
c p weight 4916 1 0
c p weight -4916 1 0
c p weight 4917 3.3333333333333337e-06 0
c p weight -4917 0.99999000000000005 0
c p weight 4918 1 0
c p weight -4918 1 0
c p weight 4919 1 0
c p weight -4919 1 0
c p weight 4920 3.3333333333333337e-06 0
c p weight -4920 0.99999000000000005 0
c p weight 4921 1 0
c p weight -4921 1 0
c p weight 4922 1 0
c p weight -4922 1 0
c p weight 4923 6.6666666666666671e-07 0
c p weight -4923 0.99999000000000005 0
c p weight 4924 1 0
c p weight -4924 1 0
c p weight 4925 1 0
c p weight -4925 1 0
c p weight 4926 1 0
c p weight -4926 1 0
c p weight 4927 1 0
c p weight -4927 1 0
c p weight 4928 3.3333333333333337e-06 0
c p weight -4928 0.99999000000000005 0
c p weight 4929 1 0
c p weight -4929 1 0
c p weight 4930 1 0
c p weight -4930 1 0
c p weight 4931 3.3333333333333337e-06 0
c p weight -4931 0.99999000000000005 0
c p weight 4932 1 0
c p weight -4932 1 0
c p weight 4933 1 0
c p weight -4933 1 0
c p weight 4934 3.3333333333333337e-06 0
c p weight -4934 0.99999000000000005 0
c p weight 4935 1 0
c p weight -4935 1 0
c p weight 4936 1 0
c p weight -4936 1 0
c p weight 4937 3.3333333333333337e-06 0
c p weight -4937 0.99999000000000005 0
c p weight 4938 1 0
c p weight -4938 1 0
c p weight 4939 1 0
c p weight -4939 1 0
c p weight 4940 3.3333333333333337e-06 0
c p weight -4940 0.99999000000000005 0
c p weight 4941 1 0
c p weight -4941 1 0
c p weight 4942 1 0
c p weight -4942 1 0
c p weight 4943 3.3333333333333337e-06 0
c p weight -4943 0.99999000000000005 0
c p weight 4944 1 0
c p weight -4944 1 0
c p weight 4945 1 0
c p weight -4945 1 0
c p weight 4946 3.3333333333333337e-06 0
c p weight -4946 0.99999000000000005 0
c p weight 4947 1 0
c p weight -4947 1 0
c p weight 4948 1 0
c p weight -4948 1 0
c p weight 4949 3.3333333333333337e-06 0
c p weight -4949 0.99999000000000005 0
c p weight 4950 1 0
c p weight -4950 1 0
c p weight 4951 1 0
c p weight -4951 1 0
c p weight 4952 3.3333333333333337e-06 0
c p weight -4952 0.99999000000000005 0
c p weight 4953 1 0
c p weight -4953 1 0
c p weight 4954 1 0
c p weight -4954 1 0
c p weight 4955 3.3333333333333337e-06 0
c p weight -4955 0.99999000000000005 0
c p weight 4956 1 0
c p weight -4956 1 0
c p weight 4957 1 0
c p weight -4957 1 0
c p weight 4958 3.3333333333333337e-06 0
c p weight -4958 0.99999000000000005 0
c p weight 4959 1 0
c p weight -4959 1 0
c p weight 4960 1 0
c p weight -4960 1 0
c p weight 4961 3.3333333333333337e-06 0
c p weight -4961 0.99999000000000005 0
c p weight 4962 1 0
c p weight -4962 1 0
c p weight 4963 1 0
c p weight -4963 1 0
c p weight 4964 3.3333333333333337e-06 0
c p weight -4964 0.99999000000000005 0
c p weight 4965 1 0
c p weight -4965 1 0
c p weight 4966 1 0
c p weight -4966 1 0
c p weight 4967 3.3333333333333337e-06 0
c p weight -4967 0.99999000000000005 0
c p weight 4968 1 0
c p weight -4968 1 0
c p weight 4969 1 0
c p weight -4969 1 0
c p weight 4970 3.3333333333333337e-06 0
c p weight -4970 0.99999000000000005 0
c p weight 4971 1 0
c p weight -4971 1 0
c p weight 4972 1 0
c p weight -4972 1 0
c p weight 4973 6.6666666666666671e-07 0
c p weight -4973 0.99999000000000005 0
c p weight 4974 1 0
c p weight -4974 1 0
c p weight 4975 1 0
c p weight -4975 1 0
c p weight 4976 1 0
c p weight -4976 1 0
c p weight 4977 1 0
c p weight -4977 1 0
c p weight 4978 3.3333333333333337e-06 0
c p weight -4978 0.99999000000000005 0
c p weight 4979 1 0
c p weight -4979 1 0
c p weight 4980 1 0
c p weight -4980 1 0
c p weight 4981 3.3333333333333337e-06 0
c p weight -4981 0.99999000000000005 0
c p weight 4982 1 0
c p weight -4982 1 0
c p weight 4983 1 0
c p weight -4983 1 0
c p weight 4984 3.3333333333333337e-06 0
c p weight -4984 0.99999000000000005 0
c p weight 4985 1 0
c p weight -4985 1 0
c p weight 4986 1 0
c p weight -4986 1 0
c p weight 4987 3.3333333333333337e-06 0
c p weight -4987 0.99999000000000005 0
c p weight 4988 1 0
c p weight -4988 1 0
c p weight 4989 1 0
c p weight -4989 1 0
c p weight 4990 3.3333333333333337e-06 0
c p weight -4990 0.99999000000000005 0
c p weight 4991 1 0
c p weight -4991 1 0
c p weight 4992 1 0
c p weight -4992 1 0
c p weight 4993 3.3333333333333337e-06 0
c p weight -4993 0.99999000000000005 0
c p weight 4994 1 0
c p weight -4994 1 0
c p weight 4995 1 0
c p weight -4995 1 0
c p weight 4996 3.3333333333333337e-06 0
c p weight -4996 0.99999000000000005 0
c p weight 4997 1 0
c p weight -4997 1 0
c p weight 4998 1 0
c p weight -4998 1 0
c p weight 4999 3.3333333333333337e-06 0
c p weight -4999 0.99999000000000005 0
c p weight 5000 1 0
c p weight -5000 1 0
c p weight 5001 1 0
c p weight -5001 1 0
c p weight 5002 3.3333333333333337e-06 0
c p weight -5002 0.99999000000000005 0
c p weight 5003 1 0
c p weight -5003 1 0
c p weight 5004 1 0
c p weight -5004 1 0
c p weight 5005 3.3333333333333337e-06 0
c p weight -5005 0.99999000000000005 0
c p weight 5006 1 0
c p weight -5006 1 0
c p weight 5007 1 0
c p weight -5007 1 0
c p weight 5008 3.3333333333333337e-06 0
c p weight -5008 0.99999000000000005 0
c p weight 5009 1 0
c p weight -5009 1 0
c p weight 5010 1 0
c p weight -5010 1 0
c p weight 5011 3.3333333333333337e-06 0
c p weight -5011 0.99999000000000005 0
c p weight 5012 1 0
c p weight -5012 1 0
c p weight 5013 1 0
c p weight -5013 1 0
c p weight 5014 3.3333333333333337e-06 0
c p weight -5014 0.99999000000000005 0
c p weight 5015 1 0
c p weight -5015 1 0
c p weight 5016 1 0
c p weight -5016 1 0
c p weight 5017 3.3333333333333337e-06 0
c p weight -5017 0.99999000000000005 0
c p weight 5018 1 0
c p weight -5018 1 0
c p weight 5019 1 0
c p weight -5019 1 0
c p weight 5020 3.3333333333333337e-06 0
c p weight -5020 0.99999000000000005 0
c p weight 5021 1 0
c p weight -5021 1 0
c p weight 5022 1 0
c p weight -5022 1 0
c p weight 5023 6.6666666666666671e-07 0
c p weight -5023 0.99999000000000005 0
c p weight 5024 1 0
c p weight -5024 1 0
c p weight 5025 1 0
c p weight -5025 1 0
c p weight 5026 1 0
c p weight -5026 1 0
c p weight 5027 1 0
c p weight -5027 1 0
c p weight 5028 3.3333333333333337e-06 0
c p weight -5028 0.99999000000000005 0
c p weight 5029 1 0
c p weight -5029 1 0
c p weight 5030 1 0
c p weight -5030 1 0
c p weight 5031 3.3333333333333337e-06 0
c p weight -5031 0.99999000000000005 0
c p weight 5032 1 0
c p weight -5032 1 0
c p weight 5033 1 0
c p weight -5033 1 0
c p weight 5034 3.3333333333333337e-06 0
c p weight -5034 0.99999000000000005 0
c p weight 5035 1 0
c p weight -5035 1 0
c p weight 5036 1 0
c p weight -5036 1 0
c p weight 5037 3.3333333333333337e-06 0
c p weight -5037 0.99999000000000005 0
c p weight 5038 1 0
c p weight -5038 1 0
c p weight 5039 1 0
c p weight -5039 1 0
c p weight 5040 3.3333333333333337e-06 0
c p weight -5040 0.99999000000000005 0
c p weight 5041 1 0
c p weight -5041 1 0
c p weight 5042 1 0
c p weight -5042 1 0
c p weight 5043 3.3333333333333337e-06 0
c p weight -5043 0.99999000000000005 0
c p weight 5044 1 0
c p weight -5044 1 0
c p weight 5045 1 0
c p weight -5045 1 0
c p weight 5046 3.3333333333333337e-06 0
c p weight -5046 0.99999000000000005 0
c p weight 5047 1 0
c p weight -5047 1 0
c p weight 5048 1 0
c p weight -5048 1 0
c p weight 5049 3.3333333333333337e-06 0
c p weight -5049 0.99999000000000005 0
c p weight 5050 1 0
c p weight -5050 1 0
c p weight 5051 1 0
c p weight -5051 1 0
c p weight 5052 3.3333333333333337e-06 0
c p weight -5052 0.99999000000000005 0
c p weight 5053 1 0
c p weight -5053 1 0
c p weight 5054 1 0
c p weight -5054 1 0
c p weight 5055 3.3333333333333337e-06 0
c p weight -5055 0.99999000000000005 0
c p weight 5056 1 0
c p weight -5056 1 0
c p weight 5057 1 0
c p weight -5057 1 0
c p weight 5058 3.3333333333333337e-06 0
c p weight -5058 0.99999000000000005 0
c p weight 5059 1 0
c p weight -5059 1 0
c p weight 5060 1 0
c p weight -5060 1 0
c p weight 5061 3.3333333333333337e-06 0
c p weight -5061 0.99999000000000005 0
c p weight 5062 1 0
c p weight -5062 1 0
c p weight 5063 1 0
c p weight -5063 1 0
c p weight 5064 3.3333333333333337e-06 0
c p weight -5064 0.99999000000000005 0
c p weight 5065 1 0
c p weight -5065 1 0
c p weight 5066 1 0
c p weight -5066 1 0
c p weight 5067 3.3333333333333337e-06 0
c p weight -5067 0.99999000000000005 0
c p weight 5068 1 0
c p weight -5068 1 0
c p weight 5069 1 0
c p weight -5069 1 0
c p weight 5070 3.3333333333333337e-06 0
c p weight -5070 0.99999000000000005 0
c p weight 5071 1 0
c p weight -5071 1 0
c p weight 5072 1 0
c p weight -5072 1 0
c p weight 5073 6.6666666666666671e-07 0
c p weight -5073 0.99999000000000005 0
c p weight 5074 1 0
c p weight -5074 1 0
c p weight 5075 1 0
c p weight -5075 1 0
c p weight 5076 1 0
c p weight -5076 1 0
c p weight 5077 1 0
c p weight -5077 1 0
c p weight 5078 3.3333333333333337e-06 0
c p weight -5078 0.99999000000000005 0
c p weight 5079 1 0
c p weight -5079 1 0
c p weight 5080 1 0
c p weight -5080 1 0
c p weight 5081 3.3333333333333337e-06 0
c p weight -5081 0.99999000000000005 0
c p weight 5082 1 0
c p weight -5082 1 0
c p weight 5083 1 0
c p weight -5083 1 0
c p weight 5084 3.3333333333333337e-06 0
c p weight -5084 0.99999000000000005 0
c p weight 5085 1 0
c p weight -5085 1 0
c p weight 5086 1 0
c p weight -5086 1 0
c p weight 5087 3.3333333333333337e-06 0
c p weight -5087 0.99999000000000005 0
c p weight 5088 1 0
c p weight -5088 1 0
c p weight 5089 1 0
c p weight -5089 1 0
c p weight 5090 3.3333333333333337e-06 0
c p weight -5090 0.99999000000000005 0
c p weight 5091 1 0
c p weight -5091 1 0
c p weight 5092 1 0
c p weight -5092 1 0
c p weight 5093 3.3333333333333337e-06 0
c p weight -5093 0.99999000000000005 0
c p weight 5094 1 0
c p weight -5094 1 0
c p weight 5095 1 0
c p weight -5095 1 0
c p weight 5096 3.3333333333333337e-06 0
c p weight -5096 0.99999000000000005 0
c p weight 5097 1 0
c p weight -5097 1 0
c p weight 5098 1 0
c p weight -5098 1 0
c p weight 5099 3.3333333333333337e-06 0
c p weight -5099 0.99999000000000005 0
c p weight 5100 1 0
c p weight -5100 1 0
c p weight 5101 1 0
c p weight -5101 1 0
c p weight 5102 3.3333333333333337e-06 0
c p weight -5102 0.99999000000000005 0
c p weight 5103 1 0
c p weight -5103 1 0
c p weight 5104 1 0
c p weight -5104 1 0
c p weight 5105 3.3333333333333337e-06 0
c p weight -5105 0.99999000000000005 0
c p weight 5106 1 0
c p weight -5106 1 0
c p weight 5107 1 0
c p weight -5107 1 0
c p weight 5108 3.3333333333333337e-06 0
c p weight -5108 0.99999000000000005 0
c p weight 5109 1 0
c p weight -5109 1 0
c p weight 5110 1 0
c p weight -5110 1 0
c p weight 5111 3.3333333333333337e-06 0
c p weight -5111 0.99999000000000005 0
c p weight 5112 1 0
c p weight -5112 1 0
c p weight 5113 1 0
c p weight -5113 1 0
c p weight 5114 3.3333333333333337e-06 0
c p weight -5114 0.99999000000000005 0
c p weight 5115 1 0
c p weight -5115 1 0
c p weight 5116 1 0
c p weight -5116 1 0
c p weight 5117 3.3333333333333337e-06 0
c p weight -5117 0.99999000000000005 0
c p weight 5118 1 0
c p weight -5118 1 0
c p weight 5119 1 0
c p weight -5119 1 0
c p weight 5120 3.3333333333333337e-06 0
c p weight -5120 0.99999000000000005 0
c p weight 5121 1 0
c p weight -5121 1 0
c p weight 5122 1 0
c p weight -5122 1 0
c p weight 5123 6.6666666666666671e-07 0
c p weight -5123 0.99999000000000005 0
c p weight 5124 1 0
c p weight -5124 1 0
c p weight 5125 1 0
c p weight -5125 1 0
c p weight 5126 1 0
c p weight -5126 1 0
c p weight 5127 1 0
c p weight -5127 1 0
c p weight 5128 3.3333333333333337e-06 0
c p weight -5128 0.99999000000000005 0
c p weight 5129 1 0
c p weight -5129 1 0
c p weight 5130 1 0
c p weight -5130 1 0
c p weight 5131 3.3333333333333337e-06 0
c p weight -5131 0.99999000000000005 0
c p weight 5132 1 0
c p weight -5132 1 0
c p weight 5133 1 0
c p weight -5133 1 0
c p weight 5134 3.3333333333333337e-06 0
c p weight -5134 0.99999000000000005 0
c p weight 5135 1 0
c p weight -5135 1 0
c p weight 5136 1 0
c p weight -5136 1 0
c p weight 5137 3.3333333333333337e-06 0
c p weight -5137 0.99999000000000005 0
c p weight 5138 1 0
c p weight -5138 1 0
c p weight 5139 1 0
c p weight -5139 1 0
c p weight 5140 3.3333333333333337e-06 0
c p weight -5140 0.99999000000000005 0
c p weight 5141 1 0
c p weight -5141 1 0
c p weight 5142 1 0
c p weight -5142 1 0
c p weight 5143 3.3333333333333337e-06 0
c p weight -5143 0.99999000000000005 0
c p weight 5144 1 0
c p weight -5144 1 0
c p weight 5145 1 0
c p weight -5145 1 0
c p weight 5146 3.3333333333333337e-06 0
c p weight -5146 0.99999000000000005 0
c p weight 5147 1 0
c p weight -5147 1 0
c p weight 5148 1 0
c p weight -5148 1 0
c p weight 5149 3.3333333333333337e-06 0
c p weight -5149 0.99999000000000005 0
c p weight 5150 1 0
c p weight -5150 1 0
c p weight 5151 1 0
c p weight -5151 1 0
c p weight 5152 3.3333333333333337e-06 0
c p weight -5152 0.99999000000000005 0
c p weight 5153 1 0
c p weight -5153 1 0
c p weight 5154 1 0
c p weight -5154 1 0
c p weight 5155 3.3333333333333337e-06 0
c p weight -5155 0.99999000000000005 0
c p weight 5156 1 0
c p weight -5156 1 0
c p weight 5157 1 0
c p weight -5157 1 0
c p weight 5158 3.3333333333333337e-06 0
c p weight -5158 0.99999000000000005 0
c p weight 5159 1 0
c p weight -5159 1 0
c p weight 5160 1 0
c p weight -5160 1 0
c p weight 5161 3.3333333333333337e-06 0
c p weight -5161 0.99999000000000005 0
c p weight 5162 1 0
c p weight -5162 1 0
c p weight 5163 1 0
c p weight -5163 1 0
c p weight 5164 3.3333333333333337e-06 0
c p weight -5164 0.99999000000000005 0
c p weight 5165 1 0
c p weight -5165 1 0
c p weight 5166 1 0
c p weight -5166 1 0
c p weight 5167 3.3333333333333337e-06 0
c p weight -5167 0.99999000000000005 0
c p weight 5168 1 0
c p weight -5168 1 0
c p weight 5169 1 0
c p weight -5169 1 0
c p weight 5170 3.3333333333333337e-06 0
c p weight -5170 0.99999000000000005 0
c p weight 5171 1 0
c p weight -5171 1 0
c p weight 5172 1 0
c p weight -5172 1 0
c p weight 5173 6.6666666666666671e-07 0
c p weight -5173 0.99999000000000005 0
c p weight 5174 1 0
c p weight -5174 1 0
c p weight 5175 1 0
c p weight -5175 1 0
c p weight 5176 1 0
c p weight -5176 1 0
c p weight 5177 1 0
c p weight -5177 1 0
c p weight 5178 3.3333333333333337e-06 0
c p weight -5178 0.99999000000000005 0
c p weight 5179 1 0
c p weight -5179 1 0
c p weight 5180 1 0
c p weight -5180 1 0
c p weight 5181 3.3333333333333337e-06 0
c p weight -5181 0.99999000000000005 0
c p weight 5182 1 0
c p weight -5182 1 0
c p weight 5183 1 0
c p weight -5183 1 0
c p weight 5184 3.3333333333333337e-06 0
c p weight -5184 0.99999000000000005 0
c p weight 5185 1 0
c p weight -5185 1 0
c p weight 5186 1 0
c p weight -5186 1 0
c p weight 5187 3.3333333333333337e-06 0
c p weight -5187 0.99999000000000005 0
c p weight 5188 1 0
c p weight -5188 1 0
c p weight 5189 1 0
c p weight -5189 1 0
c p weight 5190 3.3333333333333337e-06 0
c p weight -5190 0.99999000000000005 0
c p weight 5191 1 0
c p weight -5191 1 0
c p weight 5192 1 0
c p weight -5192 1 0
c p weight 5193 3.3333333333333337e-06 0
c p weight -5193 0.99999000000000005 0
c p weight 5194 1 0
c p weight -5194 1 0
c p weight 5195 1 0
c p weight -5195 1 0
c p weight 5196 3.3333333333333337e-06 0
c p weight -5196 0.99999000000000005 0
c p weight 5197 1 0
c p weight -5197 1 0
c p weight 5198 1 0
c p weight -5198 1 0
c p weight 5199 3.3333333333333337e-06 0
c p weight -5199 0.99999000000000005 0
c p weight 5200 1 0
c p weight -5200 1 0
c p weight 5201 1 0
c p weight -5201 1 0
c p weight 5202 3.3333333333333337e-06 0
c p weight -5202 0.99999000000000005 0
c p weight 5203 1 0
c p weight -5203 1 0
c p weight 5204 1 0
c p weight -5204 1 0
c p weight 5205 3.3333333333333337e-06 0
c p weight -5205 0.99999000000000005 0
c p weight 5206 1 0
c p weight -5206 1 0
c p weight 5207 1 0
c p weight -5207 1 0
c p weight 5208 3.3333333333333337e-06 0
c p weight -5208 0.99999000000000005 0
c p weight 5209 1 0
c p weight -5209 1 0
c p weight 5210 1 0
c p weight -5210 1 0
c p weight 5211 3.3333333333333337e-06 0
c p weight -5211 0.99999000000000005 0
c p weight 5212 1 0
c p weight -5212 1 0
c p weight 5213 1 0
c p weight -5213 1 0
c p weight 5214 3.3333333333333337e-06 0
c p weight -5214 0.99999000000000005 0
c p weight 5215 1 0
c p weight -5215 1 0
c p weight 5216 1 0
c p weight -5216 1 0
c p weight 5217 3.3333333333333337e-06 0
c p weight -5217 0.99999000000000005 0
c p weight 5218 1 0
c p weight -5218 1 0
c p weight 5219 1 0
c p weight -5219 1 0
c p weight 5220 3.3333333333333337e-06 0
c p weight -5220 0.99999000000000005 0
c p weight 5221 1 0
c p weight -5221 1 0
c p weight 5222 1 0
c p weight -5222 1 0
c p weight 5223 6.6666666666666671e-07 0
c p weight -5223 0.99999000000000005 0
c p weight 5224 1 0
c p weight -5224 1 0
c p weight 5225 1 0
c p weight -5225 1 0
c p weight 5226 1 0
c p weight -5226 1 0
c p weight 5227 1 0
c p weight -5227 1 0
c p weight 5228 3.3333333333333337e-06 0
c p weight -5228 0.99999000000000005 0
c p weight 5229 1 0
c p weight -5229 1 0
c p weight 5230 1 0
c p weight -5230 1 0
c p weight 5231 3.3333333333333337e-06 0
c p weight -5231 0.99999000000000005 0
c p weight 5232 1 0
c p weight -5232 1 0
c p weight 5233 1 0
c p weight -5233 1 0
c p weight 5234 3.3333333333333337e-06 0
c p weight -5234 0.99999000000000005 0
c p weight 5235 1 0
c p weight -5235 1 0
c p weight 5236 1 0
c p weight -5236 1 0
c p weight 5237 3.3333333333333337e-06 0
c p weight -5237 0.99999000000000005 0
c p weight 5238 1 0
c p weight -5238 1 0
c p weight 5239 1 0
c p weight -5239 1 0
c p weight 5240 3.3333333333333337e-06 0
c p weight -5240 0.99999000000000005 0
c p weight 5241 1 0
c p weight -5241 1 0
c p weight 5242 1 0
c p weight -5242 1 0
c p weight 5243 3.3333333333333337e-06 0
c p weight -5243 0.99999000000000005 0
c p weight 5244 1 0
c p weight -5244 1 0
c p weight 5245 1 0
c p weight -5245 1 0
c p weight 5246 3.3333333333333337e-06 0
c p weight -5246 0.99999000000000005 0
c p weight 5247 1 0
c p weight -5247 1 0
c p weight 5248 1 0
c p weight -5248 1 0
c p weight 5249 3.3333333333333337e-06 0
c p weight -5249 0.99999000000000005 0
c p weight 5250 1 0
c p weight -5250 1 0
c p weight 5251 1 0
c p weight -5251 1 0
c p weight 5252 3.3333333333333337e-06 0
c p weight -5252 0.99999000000000005 0
c p weight 5253 1 0
c p weight -5253 1 0
c p weight 5254 1 0
c p weight -5254 1 0
c p weight 5255 3.3333333333333337e-06 0
c p weight -5255 0.99999000000000005 0
c p weight 5256 1 0
c p weight -5256 1 0
c p weight 5257 1 0
c p weight -5257 1 0
c p weight 5258 3.3333333333333337e-06 0
c p weight -5258 0.99999000000000005 0
c p weight 5259 1 0
c p weight -5259 1 0
c p weight 5260 1 0
c p weight -5260 1 0
c p weight 5261 3.3333333333333337e-06 0
c p weight -5261 0.99999000000000005 0
c p weight 5262 1 0
c p weight -5262 1 0
c p weight 5263 1 0
c p weight -5263 1 0
c p weight 5264 3.3333333333333337e-06 0
c p weight -5264 0.99999000000000005 0
c p weight 5265 1 0
c p weight -5265 1 0
c p weight 5266 1 0
c p weight -5266 1 0
c p weight 5267 3.3333333333333337e-06 0
c p weight -5267 0.99999000000000005 0
c p weight 5268 1 0
c p weight -5268 1 0
c p weight 5269 1 0
c p weight -5269 1 0
c p weight 5270 3.3333333333333337e-06 0
c p weight -5270 0.99999000000000005 0
c p weight 5271 1 0
c p weight -5271 1 0
c p weight 5272 1 0
c p weight -5272 1 0
c p weight 5273 3.3333333333333337e-06 0
c p weight -5273 0.99999000000000005 0
c p weight 5274 1 0
c p weight -5274 1 0
c p weight 5275 1 0
c p weight -5275 1 0
c p weight 5276 3.3333333333333337e-06 0
c p weight -5276 0.99999000000000005 0
c p weight 5277 1 0
c p weight -5277 1 0
c p weight 5278 1 0
c p weight -5278 1 0
c p weight 5279 3.3333333333333337e-06 0
c p weight -5279 0.99999000000000005 0
c p weight 5280 1 0
c p weight -5280 1 0
c p weight 5281 1 0
c p weight -5281 1 0
c p weight 5282 3.3333333333333337e-06 0
c p weight -5282 0.99999000000000005 0
c p weight 5283 1 0
c p weight -5283 1 0
c p weight 5284 1 0
c p weight -5284 1 0
c p weight 5285 3.3333333333333337e-06 0
c p weight -5285 0.99999000000000005 0
c p weight 5286 1 0
c p weight -5286 1 0
c p weight 5287 1 0
c p weight -5287 1 0
c p weight 5288 3.3333333333333337e-06 0
c p weight -5288 0.99999000000000005 0
c p weight 5289 1 0
c p weight -5289 1 0
c p weight 5290 1 0
c p weight -5290 1 0
c p weight 5291 3.3333333333333337e-06 0
c p weight -5291 0.99999000000000005 0
c p weight 5292 1 0
c p weight -5292 1 0
c p weight 5293 1 0
c p weight -5293 1 0
c p weight 5294 3.3333333333333337e-06 0
c p weight -5294 0.99999000000000005 0
c p weight 5295 1 0
c p weight -5295 1 0
c p weight 5296 1 0
c p weight -5296 1 0
53 -115 -5297 0
115 -53 -5297 0
5297 -53 -115 0
5297 53 115 0
177 242 -5298 5297 0
-242 -177 -5298 5297 0
177 -242 -5298 -5297 0
242 -177 -5298 -5297 0
5298 -5297 -177 -242 0
177 242 5298 -5297 0
242 -177 5298 5297 0
177 -242 5298 5297 0
301 363 5298 -5299 0
-363 -301 5298 -5299 0
301 -363 -5298 -5299 0
363 -301 -5298 -5299 0
5299 -5298 -301 -363 0
301 363 -5298 5299 0
363 -301 5298 5299 0
301 -363 5298 5299 0
428 487 5299 -5300 0
-428 -487 5299 -5300 0
428 -487 -5299 -5300 0
487 -428 -5299 -5300 0
5300 -5299 -428 -487 0
428 487 -5299 5300 0
487 -428 5299 5300 0
428 -487 5299 5300 0
549 614 5300 -5301 0
-614 -549 5300 -5301 0
549 -614 -5300 -5301 0
614 -549 -5300 -5301 0
5301 -5300 -549 -614 0
549 614 -5300 5301 0
614 -549 5300 5301 0
549 -614 5300 5301 0
673 735 5301 -5302 0
-735 -673 5301 -5302 0
673 -735 -5301 -5302 0
735 -673 -5301 -5302 0
5302 -5301 -673 -735 0
673 735 -5301 5302 0
735 -673 5301 5302 0
673 -735 5301 5302 0
800 859 5302 -5303 0
-800 -859 5302 -5303 0
800 -859 -5302 -5303 0
859 -800 -5302 -5303 0
5303 -5302 -800 -859 0
800 859 -5302 5303 0
859 -800 5302 5303 0
800 -859 5302 5303 0
921 983 5303 -5304 0
-983 -921 5303 -5304 0
921 -983 -5303 -5304 0
983 -921 -5303 -5304 0
5304 -5303 -921 -983 0
921 983 -5303 5304 0
983 -921 5303 5304 0
921 -983 5303 5304 0
-1009 5304 -5305 0
1009 -5304 -5305 0
5305 -5304 -1009 0
1009 5304 5305 0
-1071 5305 -5306 0
1071 -5305 -5306 0
5306 -5305 -1071 0
1071 5305 5306 0
-1133 5306 -5307 0
1133 -5306 -5307 0
5307 -5306 -1133 0
1133 5306 5307 0
-1195 5307 -5308 0
1195 -5307 -5308 0
5308 -5307 -1195 0
1195 5307 5308 0
65 -127 -5309 0
127 -65 -5309 0
5309 -65 -127 0
5309 65 127 0
189 254 5309 -5310 0
-189 -254 5309 -5310 0
189 -254 -5309 -5310 0
254 -189 -5309 -5310 0
5310 -5309 -189 -254 0
189 254 -5309 5310 0
254 -189 5309 5310 0
189 -254 5309 5310 0
313 375 5310 -5311 0
-313 -375 5310 -5311 0
313 -375 -5310 -5311 0
375 -313 -5310 -5311 0
5311 -5310 -313 -375 0
313 375 -5310 5311 0
375 -313 5310 5311 0
313 -375 5310 5311 0
440 499 5311 -5312 0
-440 -499 5311 -5312 0
440 -499 -5311 -5312 0
499 -440 -5311 -5312 0
5312 -5311 -440 -499 0
440 499 -5311 5312 0
499 -440 5311 5312 0
440 -499 5311 5312 0
561 626 5312 -5313 0
-561 -626 5312 -5313 0
561 -626 -5312 -5313 0
626 -561 -5312 -5313 0
5313 -5312 -561 -626 0
561 626 -5312 5313 0
626 -561 5312 5313 0
561 -626 5312 5313 0
685 747 5313 -5314 0
-685 -747 5313 -5314 0
685 -747 -5313 -5314 0
747 -685 -5313 -5314 0
5314 -5313 -685 -747 0
685 747 -5313 5314 0
747 -685 5313 5314 0
685 -747 5313 5314 0
812 871 5314 -5315 0
-812 -871 5314 -5315 0
812 -871 -5314 -5315 0
871 -812 -5314 -5315 0
5315 -5314 -812 -871 0
812 871 -5314 5315 0
871 -812 5314 5315 0
812 -871 5314 5315 0
933 995 5315 -5316 0
-933 -995 5315 -5316 0
933 -995 -5315 -5316 0
995 -933 -5315 -5316 0
5316 -5315 -933 -995 0
933 995 -5315 5316 0
995 -933 5315 5316 0
933 -995 5315 5316 0
1057 5305 5316 -5317 0
-1057 -5305 5316 -5317 0
1057 -5305 -5316 -5317 0
-1057 5305 -5316 -5317 0
-1057 -5305 -5316 5317 0
1057 5305 -5316 5317 0
-1057 5305 5316 5317 0
1057 -5305 5316 5317 0
1069 1181 5317 -5318 0
-1069 -1181 5317 -5318 0
1069 -1181 -5317 -5318 0
1181 -1069 -5317 -5318 0
5318 -5317 -1069 -1181 0
1069 1181 -5317 5318 0
1181 -1069 5317 5318 0
1069 -1181 5317 5318 0
1243 5308 5318 -5319 0
-1243 -5308 5318 -5319 0
1243 -5308 -5318 -5319 0
-1243 5308 -5318 -5319 0
-1243 -5308 -5318 5319 0
1243 5308 -5318 5319 0
-1243 5308 5318 5319 0
1243 -5308 5318 5319 0
1255 1367 5319 -5320 0
-1255 -1367 5319 -5320 0
1255 -1367 -5319 -5320 0
1367 -1255 -5319 -5320 0
5320 -5319 -1255 -1367 0
1255 1367 -5319 5320 0
1367 -1255 5319 5320 0
1255 -1367 5319 5320 0
1429 1491 5320 -5321 0
-1429 -1491 5320 -5321 0
1429 -1491 -5320 -5321 0
1491 -1429 -5320 -5321 0
5321 -5320 -1429 -1491 0
1429 1491 -5320 5321 0
1491 -1429 5320 5321 0
1429 -1491 5320 5321 0
1553 1615 5321 -5322 0
-1553 -1615 5321 -5322 0
1553 -1615 -5321 -5322 0
1615 -1553 -5321 -5322 0
5322 -5321 -1553 -1615 0
1553 1615 -5321 5322 0
1615 -1553 5321 5322 0
1553 -1615 5321 5322 0
1677 1742 5322 -5323 0
-1677 -1742 5322 -5323 0
1677 -1742 -5322 -5323 0
1742 -1677 -5322 -5323 0
5323 -5322 -1677 -1742 0
1677 1742 -5322 5323 0
1742 -1677 5322 5323 0
1677 -1742 5322 5323 0
1801 1863 5323 -5324 0
-1801 -1863 5323 -5324 0
1801 -1863 -5323 -5324 0
1863 -1801 -5323 -5324 0
5324 -5323 -1801 -1863 0
1801 1863 -5323 5324 0
1863 -1801 5323 5324 0
1801 -1863 5323 5324 0
1928 1987 5324 -5325 0
-1928 -1987 5324 -5325 0
1928 -1987 -5324 -5325 0
1987 -1928 -5324 -5325 0
5325 -5324 -1928 -1987 0
1928 1987 -5324 5325 0
1987 -1928 5324 5325 0
1928 -1987 5324 5325 0
-5325 0
62 -124 -5326 0
124 -62 -5326 0
5326 -62 -124 0
5326 62 124 0
186 251 5326 -5327 0
-186 -251 5326 -5327 0
186 -251 -5326 -5327 0
251 -186 -5326 -5327 0
5327 -5326 -186 -251 0
186 251 -5326 5327 0
251 -186 5326 5327 0
186 -251 5326 5327 0
310 372 5327 -5328 0
-310 -372 5327 -5328 0
310 -372 -5327 -5328 0
372 -310 -5327 -5328 0
5328 -5327 -310 -372 0
310 372 -5327 5328 0
372 -310 5327 5328 0
310 -372 5327 5328 0
437 496 5328 -5329 0
-437 -496 5328 -5329 0
437 -496 -5328 -5329 0
496 -437 -5328 -5329 0
5329 -5328 -437 -496 0
437 496 -5328 5329 0
496 -437 5328 5329 0
437 -496 5328 5329 0
558 623 5329 -5330 0
-558 -623 5329 -5330 0
558 -623 -5329 -5330 0
623 -558 -5329 -5330 0
5330 -5329 -558 -623 0
558 623 -5329 5330 0
623 -558 5329 5330 0
558 -623 5329 5330 0
682 744 5330 -5331 0
-682 -744 5330 -5331 0
682 -744 -5330 -5331 0
744 -682 -5330 -5331 0
5331 -5330 -682 -744 0
682 744 -5330 5331 0
744 -682 5330 5331 0
682 -744 5330 5331 0
809 868 5331 -5332 0
-809 -868 5331 -5332 0
809 -868 -5331 -5332 0
868 -809 -5331 -5332 0
5332 -5331 -809 -868 0
809 868 -5331 5332 0
868 -809 5331 5332 0
809 -868 5331 5332 0
930 992 5332 -5333 0
-930 -992 5332 -5333 0
930 -992 -5332 -5333 0
992 -930 -5332 -5333 0
5333 -5332 -930 -992 0
930 992 -5332 5333 0
992 -930 5332 5333 0
930 -992 5332 5333 0
1054 1119 5333 -5334 0
-1054 -1119 5333 -5334 0
1054 -1119 -5333 -5334 0
1119 -1054 -5333 -5334 0
5334 -5333 -1054 -1119 0
1054 1119 -5333 5334 0
1119 -1054 5333 5334 0
1054 -1119 5333 5334 0
1178 1240 5334 -5335 0
-1178 -1240 5334 -5335 0
1178 -1240 -5334 -5335 0
1240 -1178 -5334 -5335 0
5335 -5334 -1178 -1240 0
1178 1240 -5334 5335 0
1240 -1178 5334 5335 0
1178 -1240 5334 5335 0
1305 1364 5335 -5336 0
-1305 -1364 5335 -5336 0
1305 -1364 -5335 -5336 0
1364 -1305 -5335 -5336 0
5336 -5335 -1305 -1364 0
1305 1364 -5335 5336 0
1364 -1305 5335 5336 0
1305 -1364 5335 5336 0
1426 1488 5336 -5337 0
-1426 -1488 5336 -5337 0
1426 -1488 -5336 -5337 0
1488 -1426 -5336 -5337 0
5337 -5336 -1426 -1488 0
1426 1488 -5336 5337 0
1488 -1426 5336 5337 0
1426 -1488 5336 5337 0
1550 1612 5337 -5338 0
-1550 -1612 5337 -5338 0
1550 -1612 -5337 -5338 0
1612 -1550 -5337 -5338 0
5338 -5337 -1550 -1612 0
1550 1612 -5337 5338 0
1612 -1550 5337 5338 0
1550 -1612 5337 5338 0
-1629 5338 -5339 0
1629 -5338 -5339 0
5339 -5338 -1629 0
1629 5338 5339 0
-1691 5339 -5340 0
1691 -5339 -5340 0
5340 -5339 -1691 0
1691 5339 5340 0
-1753 5340 -5341 0
1753 -5340 -5341 0
5341 -5340 -1753 0
1753 5340 5341 0
-1815 5341 -5342 0
1815 -5341 -5342 0
5342 -5341 -1815 0
1815 5341 5342 0
68 -130 -5343 0
130 -68 -5343 0
5343 -68 -130 0
5343 68 130 0
192 257 5343 -5344 0
-192 -257 5343 -5344 0
192 -257 -5343 -5344 0
257 -192 -5343 -5344 0
5344 -5343 -192 -257 0
192 257 -5343 5344 0
257 -192 5343 5344 0
192 -257 5343 5344 0
316 378 5344 -5345 0
-316 -378 5344 -5345 0
316 -378 -5344 -5345 0
378 -316 -5344 -5345 0
5345 -5344 -316 -378 0
316 378 -5344 5345 0
378 -316 5344 5345 0
316 -378 5344 5345 0
443 502 5345 -5346 0
-443 -502 5345 -5346 0
443 -502 -5345 -5346 0
502 -443 -5345 -5346 0
5346 -5345 -443 -502 0
443 502 -5345 5346 0
502 -443 5345 5346 0
443 -502 5345 5346 0
564 629 5346 -5347 0
-564 -629 5346 -5347 0
564 -629 -5346 -5347 0
629 -564 -5346 -5347 0
5347 -5346 -564 -629 0
564 629 -5346 5347 0
629 -564 5346 5347 0
564 -629 5346 5347 0
688 750 5347 -5348 0
-688 -750 5347 -5348 0
688 -750 -5347 -5348 0
750 -688 -5347 -5348 0
5348 -5347 -688 -750 0
688 750 -5347 5348 0
750 -688 5347 5348 0
688 -750 5347 5348 0
815 874 5348 -5349 0
-815 -874 5348 -5349 0
815 -874 -5348 -5349 0
874 -815 -5348 -5349 0
5349 -5348 -815 -874 0
815 874 -5348 5349 0
874 -815 5348 5349 0
815 -874 5348 5349 0
936 998 5349 -5350 0
-936 -998 5349 -5350 0
936 -998 -5349 -5350 0
998 -936 -5349 -5350 0
5350 -5349 -936 -998 0
936 998 -5349 5350 0
998 -936 5349 5350 0
936 -998 5349 5350 0
1060 1122 5350 -5351 0
-1060 -1122 5350 -5351 0
1060 -1122 -5350 -5351 0
1122 -1060 -5350 -5351 0
5351 -5350 -1060 -1122 0
1060 1122 -5350 5351 0
1122 -1060 5350 5351 0
1060 -1122 5350 5351 0
1184 1246 5351 -5352 0
-1184 -1246 5351 -5352 0
1184 -1246 -5351 -5352 0
1246 -1184 -5351 -5352 0
5352 -5351 -1184 -1246 0
1184 1246 -5351 5352 0
1246 -1184 5351 5352 0
1184 -1246 5351 5352 0
1308 1370 5352 -5353 0
-1308 -1370 5352 -5353 0
1308 -1370 -5352 -5353 0
1370 -1308 -5352 -5353 0
5353 -5352 -1308 -1370 0
1308 1370 -5352 5353 0
1370 -1308 5352 5353 0
1308 -1370 5352 5353 0
1432 1494 5353 -5354 0
-1432 -1494 5353 -5354 0
1432 -1494 -5353 -5354 0
1494 -1432 -5353 -5354 0
5354 -5353 -1432 -1494 0
1432 1494 -5353 5354 0
1494 -1432 5353 5354 0
1432 -1494 5353 5354 0
1556 1618 5354 -5355 0
-1556 -1618 5354 -5355 0
1556 -1618 -5354 -5355 0
1618 -1556 -5354 -5355 0
5355 -5354 -1556 -1618 0
1556 1618 -5354 5355 0
1618 -1556 5354 5355 0
1556 -1618 5354 5355 0
1680 5339 5355 -5356 0
-1680 -5339 5355 -5356 0
1680 -5339 -5355 -5356 0
-1680 5339 -5355 -5356 0
-1680 -5339 -5355 5356 0
1680 5339 -5355 5356 0
-1680 5339 5355 5356 0
1680 -5339 5355 5356 0
1689 1804 5356 -5357 0
-1689 -1804 5356 -5357 0
1689 -1804 -5356 -5357 0
1804 -1689 -5356 -5357 0
5357 -5356 -1689 -1804 0
1689 1804 -5356 5357 0
1804 -1689 5356 5357 0
1689 -1804 5356 5357 0
1866 5342 5357 -5358 0
-1866 -5342 5357 -5358 0
1866 -5342 -5357 -5358 0
-1866 5342 -5357 -5358 0
-1866 -5342 -5357 5358 0
1866 5342 -5357 5358 0
-1866 5342 5357 5358 0
1866 -5342 5357 5358 0
1875 1990 5358 -5359 0
-1875 -1990 5358 -5359 0
1875 -1990 -5358 -5359 0
1990 -1875 -5358 -5359 0
5359 -5358 -1875 -1990 0
1875 1990 -5358 5359 0
1990 -1875 5358 5359 0
1875 -1990 5358 5359 0
-5359 0
43 -105 -5360 0
105 -43 -5360 0
5360 -43 -105 0
5360 43 105 0
-138 5360 -5361 0
138 -5360 -5361 0
5361 -5360 -138 0
138 5360 5361 0
-200 5361 -5362 0
200 -5361 -5362 0
5362 -5361 -200 0
200 5361 5362 0
-262 5362 -5363 0
262 -5362 -5363 0
5363 -5362 -262 0
262 5362 5363 0
-324 5363 -5364 0
324 -5363 -5364 0
5364 -5363 -324 0
324 5363 5364 0
70 -132 -5365 0
132 -70 -5365 0
5365 -70 -132 0
5365 70 132 0
194 5361 5365 -5366 0
-194 -5361 5365 -5366 0
194 -5361 -5365 -5366 0
-194 5361 -5365 -5366 0
-194 -5361 -5365 5366 0
194 5361 -5365 5366 0
-194 5361 5365 5366 0
194 -5361 5365 5366 0
202 318 5366 -5367 0
-202 -318 5366 -5367 0
202 -318 -5366 -5367 0
318 -202 -5366 -5367 0
5367 -5366 -202 -318 0
202 318 -5366 5367 0
318 -202 5366 5367 0
202 -318 5366 5367 0
380 5364 5367 -5368 0
-380 -5364 5367 -5368 0
380 -5364 -5367 -5368 0
-380 5364 -5367 -5368 0
-380 -5364 -5367 5368 0
380 5364 -5367 5368 0
-380 5364 5367 5368 0
380 -5364 5367 5368 0
388 504 5368 -5369 0
-388 -504 5368 -5369 0
388 -504 -5368 -5369 0
504 -388 -5368 -5369 0
5369 -5368 -388 -504 0
388 504 -5368 5369 0
504 -388 5368 5369 0
388 -504 5368 5369 0
566 631 5369 -5370 0
-566 -631 5369 -5370 0
566 -631 -5369 -5370 0
631 -566 -5369 -5370 0
5370 -5369 -566 -631 0
566 631 -5369 5370 0
631 -566 5369 5370 0
566 -631 5369 5370 0
690 752 5370 -5371 0
-690 -752 5370 -5371 0
690 -752 -5370 -5371 0
752 -690 -5370 -5371 0
5371 -5370 -690 -752 0
690 752 -5370 5371 0
752 -690 5370 5371 0
690 -752 5370 5371 0
817 876 5371 -5372 0
-817 -876 5371 -5372 0
817 -876 -5371 -5372 0
876 -817 -5371 -5372 0
5372 -5371 -817 -876 0
817 876 -5371 5372 0
876 -817 5371 5372 0
817 -876 5371 5372 0
938 1000 5372 -5373 0
-938 -1000 5372 -5373 0
938 -1000 -5372 -5373 0
1000 -938 -5372 -5373 0
5373 -5372 -938 -1000 0
938 1000 -5372 5373 0
1000 -938 5372 5373 0
938 -1000 5372 5373 0
1062 1124 5373 -5374 0
-1062 -1124 5373 -5374 0
1062 -1124 -5373 -5374 0
1124 -1062 -5373 -5374 0
5374 -5373 -1062 -1124 0
1062 1124 -5373 5374 0
1124 -1062 5373 5374 0
1062 -1124 5373 5374 0
1186 1248 5374 -5375 0
-1186 -1248 5374 -5375 0
1186 -1248 -5374 -5375 0
1248 -1186 -5374 -5375 0
5375 -5374 -1186 -1248 0
1186 1248 -5374 5375 0
1248 -1186 5374 5375 0
1186 -1248 5374 5375 0
1310 1372 5375 -5376 0
-1310 -1372 5375 -5376 0
1310 -1372 -5375 -5376 0
1372 -1310 -5375 -5376 0
5376 -5375 -1310 -1372 0
1310 1372 -5375 5376 0
1372 -1310 5375 5376 0
1310 -1372 5375 5376 0
1434 1496 5376 -5377 0
-1434 -1496 5376 -5377 0
1434 -1496 -5376 -5377 0
1496 -1434 -5376 -5377 0
5377 -5376 -1434 -1496 0
1434 1496 -5376 5377 0
1496 -1434 5376 5377 0
1434 -1496 5376 5377 0
1558 1620 5377 -5378 0
-1558 -1620 5377 -5378 0
1558 -1620 -5377 -5378 0
1620 -1558 -5377 -5378 0
5378 -5377 -1558 -1620 0
1558 1620 -5377 5378 0
1620 -1558 5377 5378 0
1558 -1620 5377 5378 0
1682 1744 5378 -5379 0
-1682 -1744 5378 -5379 0
1682 -1744 -5378 -5379 0
1744 -1682 -5378 -5379 0
5379 -5378 -1682 -1744 0
1682 1744 -5378 5379 0
1744 -1682 5378 5379 0
1682 -1744 5378 5379 0
1806 1868 5379 -5380 0
-1806 -1868 5379 -5380 0
1806 -1868 -5379 -5380 0
1868 -1806 -5379 -5380 0
5380 -5379 -1806 -1868 0
1806 1868 -5379 5380 0
1868 -1806 5379 5380 0
1806 -1868 5379 5380 0
1930 1992 5380 -5381 0
-1930 -1992 5380 -5381 0
1930 -1992 -5380 -5381 0
1992 -1930 -5380 -5381 0
5381 -5380 -1930 -1992 0
1930 1992 -5380 5381 0
1992 -1930 5380 5381 0
1930 -1992 5380 5381 0
-5381 0
46 -108 -5382 0
108 -46 -5382 0
5382 -46 -108 0
5382 46 108 0
170 235 5382 -5383 0
-170 -235 5382 -5383 0
170 -235 -5382 -5383 0
235 -170 -5382 -5383 0
5383 -5382 -170 -235 0
170 235 -5382 5383 0
235 -170 5382 5383 0
170 -235 5382 5383 0
294 356 5383 -5384 0
-294 -356 5383 -5384 0
294 -356 -5383 -5384 0
356 -294 -5383 -5384 0
5384 -5383 -294 -356 0
294 356 -5383 5384 0
356 -294 5383 5384 0
294 -356 5383 5384 0
421 480 5384 -5385 0
-421 -480 5384 -5385 0
421 -480 -5384 -5385 0
480 -421 -5384 -5385 0
5385 -5384 -421 -480 0
421 480 -5384 5385 0
480 -421 5384 5385 0
421 -480 5384 5385 0
-510 5385 -5386 0
510 -5385 -5386 0
5386 -5385 -510 0
510 5385 5386 0
-572 5386 -5387 0
572 -5386 -5387 0
5387 -5386 -572 0
572 5386 5387 0
-634 5387 -5388 0
634 -5387 -5388 0
5388 -5387 -634 0
634 5387 5388 0
-696 5388 -5389 0
696 -5388 -5389 0
5389 -5388 -696 0
696 5388 5389 0
73 -135 -5390 0
135 -73 -5390 0
5390 -73 -135 0
5390 73 135 0
197 259 5390 -5391 0
-197 -259 5390 -5391 0
197 -259 -5390 -5391 0
259 -197 -5390 -5391 0
5391 -5390 -197 -259 0
197 259 -5390 5391 0
259 -197 5390 5391 0
197 -259 5390 5391 0
321 383 5391 -5392 0
-321 -383 5391 -5392 0
321 -383 -5391 -5392 0
383 -321 -5391 -5392 0
5392 -5391 -321 -383 0
321 383 -5391 5392 0
383 -321 5391 5392 0
321 -383 5391 5392 0
445 507 5392 -5393 0
-445 -507 5392 -5393 0
445 -507 -5392 -5393 0
507 -445 -5392 -5393 0
5393 -5392 -445 -507 0
445 507 -5392 5393 0
507 -445 5392 5393 0
445 -507 5392 5393 0
569 5386 5393 -5394 0
-569 -5386 5393 -5394 0
569 -5386 -5393 -5394 0
-569 5386 -5393 -5394 0
-569 -5386 -5393 5394 0
569 5386 -5393 5394 0
-569 5386 5393 5394 0
569 -5386 5393 5394 0
574 693 5394 -5395 0
-574 -693 5394 -5395 0
574 -693 -5394 -5395 0
693 -574 -5394 -5395 0
-574 -693 -5394 5395 0
574 693 -5394 5395 0
693 -574 5394 5395 0
574 -693 5394 5395 0
755 5389 5395 -5396 0
-755 -5389 5395 -5396 0
755 -5389 -5395 -5396 0
-755 5389 -5395 -5396 0
-755 -5389 -5395 5396 0
755 5389 -5395 5396 0
-755 5389 5395 5396 0
755 -5389 5395 5396 0
760 879 5396 -5397 0
-760 -879 5396 -5397 0
760 -879 -5396 -5397 0
879 -760 -5396 -5397 0
5397 -5396 -760 -879 0
760 879 -5396 5397 0
879 -760 5396 5397 0
760 -879 5396 5397 0
941 1003 5397 -5398 0
-941 -1003 5397 -5398 0
941 -1003 -5397 -5398 0
1003 -941 -5397 -5398 0
5398 -5397 -941 -1003 0
941 1003 -5397 5398 0
1003 -941 5397 5398 0
941 -1003 5397 5398 0
1065 1127 5398 -5399 0
-1065 -1127 5398 -5399 0
1065 -1127 -5398 -5399 0
1127 -1065 -5398 -5399 0
5399 -5398 -1065 -1127 0
1065 1127 -5398 5399 0
1127 -1065 5398 5399 0
1065 -1127 5398 5399 0
1189 1251 5399 -5400 0
-1189 -1251 5399 -5400 0
1189 -1251 -5399 -5400 0
1251 -1189 -5399 -5400 0
5400 -5399 -1189 -1251 0
1189 1251 -5399 5400 0
1251 -1189 5399 5400 0
1189 -1251 5399 5400 0
1313 1375 5400 -5401 0
-1313 -1375 5400 -5401 0
1313 -1375 -5400 -5401 0
1375 -1313 -5400 -5401 0
5401 -5400 -1313 -1375 0
1313 1375 -5400 5401 0
1375 -1313 5400 5401 0
1313 -1375 5400 5401 0
1437 1499 5401 -5402 0
-1437 -1499 5401 -5402 0
1437 -1499 -5401 -5402 0
1499 -1437 -5401 -5402 0
5402 -5401 -1437 -1499 0
1437 1499 -5401 5402 0
1499 -1437 5401 5402 0
1437 -1499 5401 5402 0
1561 1623 5402 -5403 0
-1561 -1623 5402 -5403 0
1561 -1623 -5402 -5403 0
1623 -1561 -5402 -5403 0
5403 -5402 -1561 -1623 0
1561 1623 -5402 5403 0
1623 -1561 5402 5403 0
1561 -1623 5402 5403 0
1685 1747 5403 -5404 0
-1685 -1747 5403 -5404 0
1685 -1747 -5403 -5404 0
1747 -1685 -5403 -5404 0
5404 -5403 -1685 -1747 0
1685 1747 -5403 5404 0
1747 -1685 5403 5404 0
1685 -1747 5403 5404 0
1809 1871 5404 -5405 0
-1809 -1871 5404 -5405 0
1809 -1871 -5404 -5405 0
1871 -1809 -5404 -5405 0
5405 -5404 -1809 -1871 0
1809 1871 -5404 5405 0
1871 -1809 5404 5405 0
1809 -1871 5404 5405 0
1933 1995 5405 -5406 0
-1933 -1995 5405 -5406 0
1933 -1995 -5405 -5406 0
1995 -1933 -5405 -5406 0
5406 -5405 -1933 -1995 0
1933 1995 -5405 5406 0
1995 -1933 5405 5406 0
1933 -1995 5405 5406 0
-5406 0
2085 -2147 -5407 0
2147 -2085 -5407 0
5407 -2085 -2147 0
5407 2085 2147 0
2209 2274 5407 -5408 0
-2209 -2274 5407 -5408 0
2209 -2274 -5407 -5408 0
2274 -2209 -5407 -5408 0
5408 -5407 -2209 -2274 0
2209 2274 -5407 5408 0
2274 -2209 5407 5408 0
2209 -2274 5407 5408 0
2333 2395 5408 -5409 0
-2333 -2395 5408 -5409 0
2333 -2395 -5408 -5409 0
2395 -2333 -5408 -5409 0
5409 -5408 -2333 -2395 0
2333 2395 -5408 5409 0
2395 -2333 5408 5409 0
2333 -2395 5408 5409 0
2460 2519 5409 -5410 0
-2460 -2519 5409 -5410 0
2460 -2519 -5409 -5410 0
2519 -2460 -5409 -5410 0
5410 -5409 -2460 -2519 0
2460 2519 -5409 5410 0
2519 -2460 5409 5410 0
2460 -2519 5409 5410 0
2581 2646 5410 -5411 0
-2581 -2646 5410 -5411 0
2581 -2646 -5410 -5411 0
2646 -2581 -5410 -5411 0
5411 -5410 -2581 -2646 0
2581 2646 -5410 5411 0
2646 -2581 5410 5411 0
2581 -2646 5410 5411 0
2705 2767 5411 -5412 0
-2705 -2767 5411 -5412 0
2705 -2767 -5411 -5412 0
2767 -2705 -5411 -5412 0
5412 -5411 -2705 -2767 0
2705 2767 -5411 5412 0
2767 -2705 5411 5412 0
2705 -2767 5411 5412 0
2832 2891 5412 -5413 0
-2832 -2891 5412 -5413 0
2832 -2891 -5412 -5413 0
2891 -2832 -5412 -5413 0
5413 -5412 -2832 -2891 0
2832 2891 -5412 5413 0
2891 -2832 5412 5413 0
2832 -2891 5412 5413 0
2953 3015 5413 -5414 0
-2953 -3015 5413 -5414 0
2953 -3015 -5413 -5414 0
3015 -2953 -5413 -5414 0
5414 -5413 -2953 -3015 0
2953 3015 -5413 5414 0
3015 -2953 5413 5414 0
2953 -3015 5413 5414 0
-3041 5414 -5415 0
3041 -5414 -5415 0
5415 -5414 -3041 0
3041 5414 5415 0
-3103 5415 -5416 0
3103 -5415 -5416 0
5416 -5415 -3103 0
3103 5415 5416 0
-3165 5416 -5417 0
3165 -5416 -5417 0
5417 -5416 -3165 0
3165 5416 5417 0
-3227 5417 -5418 0
3227 -5417 -5418 0
5418 -5417 -3227 0
3227 5417 5418 0
2097 -2159 -5419 0
2159 -2097 -5419 0
5419 -2097 -2159 0
5419 2097 2159 0
2221 2286 5419 -5420 0
-2221 -2286 5419 -5420 0
2221 -2286 -5419 -5420 0
2286 -2221 -5419 -5420 0
5420 -5419 -2221 -2286 0
2221 2286 -5419 5420 0
2286 -2221 5419 5420 0
2221 -2286 5419 5420 0
2345 2407 5420 -5421 0
-2345 -2407 5420 -5421 0
2345 -2407 -5420 -5421 0
2407 -2345 -5420 -5421 0
5421 -5420 -2345 -2407 0
2345 2407 -5420 5421 0
2407 -2345 5420 5421 0
2345 -2407 5420 5421 0
2472 2531 5421 -5422 0
-2472 -2531 5421 -5422 0
2472 -2531 -5421 -5422 0
2531 -2472 -5421 -5422 0
5422 -5421 -2472 -2531 0
2472 2531 -5421 5422 0
2531 -2472 5421 5422 0
2472 -2531 5421 5422 0
2593 2658 5422 -5423 0
-2593 -2658 5422 -5423 0
2593 -2658 -5422 -5423 0
2658 -2593 -5422 -5423 0
5423 -5422 -2593 -2658 0
2593 2658 -5422 5423 0
2658 -2593 5422 5423 0
2593 -2658 5422 5423 0
2717 2779 5423 -5424 0
-2717 -2779 5423 -5424 0
2717 -2779 -5423 -5424 0
2779 -2717 -5423 -5424 0
5424 -5423 -2717 -2779 0
2717 2779 -5423 5424 0
2779 -2717 5423 5424 0
2717 -2779 5423 5424 0
2844 2903 5424 -5425 0
-2844 -2903 5424 -5425 0
2844 -2903 -5424 -5425 0
2903 -2844 -5424 -5425 0
5425 -5424 -2844 -2903 0
2844 2903 -5424 5425 0
2903 -2844 5424 5425 0
2844 -2903 5424 5425 0
2965 3027 5425 -5426 0
-2965 -3027 5425 -5426 0
2965 -3027 -5425 -5426 0
3027 -2965 -5425 -5426 0
5426 -5425 -2965 -3027 0
2965 3027 -5425 5426 0
3027 -2965 5425 5426 0
2965 -3027 5425 5426 0
3089 5415 5426 -5427 0
-3089 -5415 5426 -5427 0
3089 -5415 -5426 -5427 0
-3089 5415 -5426 -5427 0
-3089 -5415 -5426 5427 0
3089 5415 -5426 5427 0
-3089 5415 5426 5427 0
3089 -5415 5426 5427 0
3101 3213 5427 -5428 0
-3101 -3213 5427 -5428 0
3101 -3213 -5427 -5428 0
3213 -3101 -5427 -5428 0
5428 -5427 -3101 -3213 0
3101 3213 -5427 5428 0
3213 -3101 5427 5428 0
3101 -3213 5427 5428 0
3275 5418 5428 -5429 0
-3275 -5418 5428 -5429 0
3275 -5418 -5428 -5429 0
-3275 5418 -5428 -5429 0
-3275 -5418 -5428 5429 0
3275 5418 -5428 5429 0
-3275 5418 5428 5429 0
3275 -5418 5428 5429 0
3287 3399 5429 -5430 0
-3287 -3399 5429 -5430 0
3287 -3399 -5429 -5430 0
3399 -3287 -5429 -5430 0
5430 -5429 -3287 -3399 0
3287 3399 -5429 5430 0
3399 -3287 5429 5430 0
3287 -3399 5429 5430 0
3461 3523 5430 -5431 0
-3461 -3523 5430 -5431 0
3461 -3523 -5430 -5431 0
3523 -3461 -5430 -5431 0
5431 -5430 -3461 -3523 0
3461 3523 -5430 5431 0
3523 -3461 5430 5431 0
3461 -3523 5430 5431 0
3585 3647 5431 -5432 0
-3585 -3647 5431 -5432 0
3585 -3647 -5431 -5432 0
3647 -3585 -5431 -5432 0
5432 -5431 -3585 -3647 0
3585 3647 -5431 5432 0
3647 -3585 5431 5432 0
3585 -3647 5431 5432 0
3709 3774 5432 -5433 0
-3709 -3774 5432 -5433 0
3709 -3774 -5432 -5433 0
3774 -3709 -5432 -5433 0
5433 -5432 -3709 -3774 0
3709 3774 -5432 5433 0
3774 -3709 5432 5433 0
3709 -3774 5432 5433 0
3833 3895 5433 -5434 0
-3833 -3895 5433 -5434 0
3833 -3895 -5433 -5434 0
3895 -3833 -5433 -5434 0
5434 -5433 -3833 -3895 0
3833 3895 -5433 5434 0
3895 -3833 5433 5434 0
3833 -3895 5433 5434 0
3960 4019 5434 -5435 0
-3960 -4019 5434 -5435 0
3960 -4019 -5434 -5435 0
4019 -3960 -5434 -5435 0
5435 -5434 -3960 -4019 0
3960 4019 -5434 5435 0
4019 -3960 5434 5435 0
3960 -4019 5434 5435 0
-5435 0
2094 -2156 -5436 0
2156 -2094 -5436 0
5436 -2094 -2156 0
5436 2094 2156 0
2218 2283 5436 -5437 0
-2218 -2283 5436 -5437 0
2218 -2283 -5436 -5437 0
2283 -2218 -5436 -5437 0
5437 -5436 -2218 -2283 0
2218 2283 -5436 5437 0
2283 -2218 5436 5437 0
2218 -2283 5436 5437 0
2342 2404 5437 -5438 0
-2342 -2404 5437 -5438 0
2342 -2404 -5437 -5438 0
2404 -2342 -5437 -5438 0
5438 -5437 -2342 -2404 0
2342 2404 -5437 5438 0
2404 -2342 5437 5438 0
2342 -2404 5437 5438 0
2469 2528 5438 -5439 0
-2469 -2528 5438 -5439 0
2469 -2528 -5438 -5439 0
2528 -2469 -5438 -5439 0
5439 -5438 -2469 -2528 0
2469 2528 -5438 5439 0
2528 -2469 5438 5439 0
2469 -2528 5438 5439 0
2590 2655 5439 -5440 0
-2590 -2655 5439 -5440 0
2590 -2655 -5439 -5440 0
2655 -2590 -5439 -5440 0
5440 -5439 -2590 -2655 0
2590 2655 -5439 5440 0
2655 -2590 5439 5440 0
2590 -2655 5439 5440 0
2714 2776 5440 -5441 0
-2714 -2776 5440 -5441 0
2714 -2776 -5440 -5441 0
2776 -2714 -5440 -5441 0
5441 -5440 -2714 -2776 0
2714 2776 -5440 5441 0
2776 -2714 5440 5441 0
2714 -2776 5440 5441 0
2841 2900 5441 -5442 0
-2841 -2900 5441 -5442 0
2841 -2900 -5441 -5442 0
2900 -2841 -5441 -5442 0
5442 -5441 -2841 -2900 0
2841 2900 -5441 5442 0
2900 -2841 5441 5442 0
2841 -2900 5441 5442 0
2962 3024 5442 -5443 0
-2962 -3024 5442 -5443 0
2962 -3024 -5442 -5443 0
3024 -2962 -5442 -5443 0
5443 -5442 -2962 -3024 0
2962 3024 -5442 5443 0
3024 -2962 5442 5443 0
2962 -3024 5442 5443 0
3086 3151 5443 -5444 0
-3086 -3151 5443 -5444 0
3086 -3151 -5443 -5444 0
3151 -3086 -5443 -5444 0
5444 -5443 -3086 -3151 0
3086 3151 -5443 5444 0
3151 -3086 5443 5444 0
3086 -3151 5443 5444 0
3210 3272 5444 -5445 0
-3210 -3272 5444 -5445 0
3210 -3272 -5444 -5445 0
3272 -3210 -5444 -5445 0
5445 -5444 -3210 -3272 0
3210 3272 -5444 5445 0
3272 -3210 5444 5445 0
3210 -3272 5444 5445 0
3337 3396 5445 -5446 0
-3337 -3396 5445 -5446 0
3337 -3396 -5445 -5446 0
3396 -3337 -5445 -5446 0
5446 -5445 -3337 -3396 0
3337 3396 -5445 5446 0
3396 -3337 5445 5446 0
3337 -3396 5445 5446 0
3458 3520 5446 -5447 0
-3458 -3520 5446 -5447 0
3458 -3520 -5446 -5447 0
3520 -3458 -5446 -5447 0
5447 -5446 -3458 -3520 0
3458 3520 -5446 5447 0
3520 -3458 5446 5447 0
3458 -3520 5446 5447 0
3582 3644 5447 -5448 0
-3582 -3644 5447 -5448 0
3582 -3644 -5447 -5448 0
3644 -3582 -5447 -5448 0
5448 -5447 -3582 -3644 0
3582 3644 -5447 5448 0
3644 -3582 5447 5448 0
3582 -3644 5447 5448 0
-3661 5448 -5449 0
3661 -5448 -5449 0
5449 -5448 -3661 0
3661 5448 5449 0
-3723 5449 -5450 0
3723 -5449 -5450 0
5450 -5449 -3723 0
3723 5449 5450 0
-3785 5450 -5451 0
3785 -5450 -5451 0
5451 -5450 -3785 0
3785 5450 5451 0
-3847 5451 -5452 0
3847 -5451 -5452 0
5452 -5451 -3847 0
3847 5451 5452 0
2100 -2162 -5453 0
2162 -2100 -5453 0
5453 -2100 -2162 0
5453 2100 2162 0
2224 2289 5453 -5454 0
-2224 -2289 5453 -5454 0
2224 -2289 -5453 -5454 0
2289 -2224 -5453 -5454 0
5454 -5453 -2224 -2289 0
2224 2289 -5453 5454 0
2289 -2224 5453 5454 0
2224 -2289 5453 5454 0
2348 2410 5454 -5455 0
-2348 -2410 5454 -5455 0
2348 -2410 -5454 -5455 0
2410 -2348 -5454 -5455 0
5455 -5454 -2348 -2410 0
2348 2410 -5454 5455 0
2410 -2348 5454 5455 0
2348 -2410 5454 5455 0
2475 2534 5455 -5456 0
-2475 -2534 5455 -5456 0
2475 -2534 -5455 -5456 0
2534 -2475 -5455 -5456 0
5456 -5455 -2475 -2534 0
2475 2534 -5455 5456 0
2534 -2475 5455 5456 0
2475 -2534 5455 5456 0
2596 2661 5456 -5457 0
-2596 -2661 5456 -5457 0
2596 -2661 -5456 -5457 0
2661 -2596 -5456 -5457 0
5457 -5456 -2596 -2661 0
2596 2661 -5456 5457 0
2661 -2596 5456 5457 0
2596 -2661 5456 5457 0
2720 2782 5457 -5458 0
-2720 -2782 5457 -5458 0
2720 -2782 -5457 -5458 0
2782 -2720 -5457 -5458 0
5458 -5457 -2720 -2782 0
2720 2782 -5457 5458 0
2782 -2720 5457 5458 0
2720 -2782 5457 5458 0
2847 2906 5458 -5459 0
-2847 -2906 5458 -5459 0
2847 -2906 -5458 -5459 0
2906 -2847 -5458 -5459 0
5459 -5458 -2847 -2906 0
2847 2906 -5458 5459 0
2906 -2847 5458 5459 0
2847 -2906 5458 5459 0
2968 3030 5459 -5460 0
-2968 -3030 5459 -5460 0
2968 -3030 -5459 -5460 0
3030 -2968 -5459 -5460 0
5460 -5459 -2968 -3030 0
2968 3030 -5459 5460 0
3030 -2968 5459 5460 0
2968 -3030 5459 5460 0
3092 3154 5460 -5461 0
-3092 -3154 5460 -5461 0
3092 -3154 -5460 -5461 0
3154 -3092 -5460 -5461 0
5461 -5460 -3092 -3154 0
3092 3154 -5460 5461 0
3154 -3092 5460 5461 0
3092 -3154 5460 5461 0
3216 3278 5461 -5462 0
-3216 -3278 5461 -5462 0
3216 -3278 -5461 -5462 0
3278 -3216 -5461 -5462 0
5462 -5461 -3216 -3278 0
3216 3278 -5461 5462 0
3278 -3216 5461 5462 0
3216 -3278 5461 5462 0
3340 3402 5462 -5463 0
-3340 -3402 5462 -5463 0
3340 -3402 -5462 -5463 0
3402 -3340 -5462 -5463 0
5463 -5462 -3340 -3402 0
3340 3402 -5462 5463 0
3402 -3340 5462 5463 0
3340 -3402 5462 5463 0
3464 3526 5463 -5464 0
-3464 -3526 5463 -5464 0
3464 -3526 -5463 -5464 0
3526 -3464 -5463 -5464 0
5464 -5463 -3464 -3526 0
3464 3526 -5463 5464 0
3526 -3464 5463 5464 0
3464 -3526 5463 5464 0
3588 3650 5464 -5465 0
-3588 -3650 5464 -5465 0
3588 -3650 -5464 -5465 0
3650 -3588 -5464 -5465 0
5465 -5464 -3588 -3650 0
3588 3650 -5464 5465 0
3650 -3588 5464 5465 0
3588 -3650 5464 5465 0
3712 5449 5465 -5466 0
-3712 -5449 5465 -5466 0
3712 -5449 -5465 -5466 0
-3712 5449 -5465 -5466 0
-3712 -5449 -5465 5466 0
3712 5449 -5465 5466 0
-3712 5449 5465 5466 0
3712 -5449 5465 5466 0
3721 3836 5466 -5467 0
-3721 -3836 5466 -5467 0
3721 -3836 -5466 -5467 0
3836 -3721 -5466 -5467 0
5467 -5466 -3721 -3836 0
3721 3836 -5466 5467 0
3836 -3721 5466 5467 0
3721 -3836 5466 5467 0
3898 5452 5467 -5468 0
-3898 -5452 5467 -5468 0
3898 -5452 -5467 -5468 0
-3898 5452 -5467 -5468 0
-3898 -5452 -5467 5468 0
3898 5452 -5467 5468 0
-3898 5452 5467 5468 0
3898 -5452 5467 5468 0
3907 4022 5468 -5469 0
-3907 -4022 5468 -5469 0
3907 -4022 -5468 -5469 0
4022 -3907 -5468 -5469 0
5469 -5468 -3907 -4022 0
3907 4022 -5468 5469 0
4022 -3907 5468 5469 0
3907 -4022 5468 5469 0
-5469 0
2075 -2137 -5470 0
2137 -2075 -5470 0
5470 -2075 -2137 0
5470 2075 2137 0
-2170 5470 -5471 0
2170 -5470 -5471 0
5471 -5470 -2170 0
2170 5470 5471 0
-2232 5471 -5472 0
2232 -5471 -5472 0
5472 -5471 -2232 0
2232 5471 5472 0
-2294 5472 -5473 0
2294 -5472 -5473 0
5473 -5472 -2294 0
2294 5472 5473 0
-2356 5473 -5474 0
2356 -5473 -5474 0
5474 -5473 -2356 0
2356 5473 5474 0
2102 -2164 -5475 0
2164 -2102 -5475 0
5475 -2102 -2164 0
5475 2102 2164 0
2226 5471 5475 -5476 0
-2226 -5471 5475 -5476 0
2226 -5471 -5475 -5476 0
-2226 5471 -5475 -5476 0
-2226 -5471 -5475 5476 0
2226 5471 -5475 5476 0
-2226 5471 5475 5476 0
2226 -5471 5475 5476 0
2234 2350 5476 -5477 0
-2234 -2350 5476 -5477 0
2234 -2350 -5476 -5477 0
2350 -2234 -5476 -5477 0
5477 -5476 -2234 -2350 0
2234 2350 -5476 5477 0
2350 -2234 5476 5477 0
2234 -2350 5476 5477 0
2412 5474 5477 -5478 0
-2412 -5474 5477 -5478 0
2412 -5474 -5477 -5478 0
-2412 5474 -5477 -5478 0
-2412 -5474 -5477 5478 0
2412 5474 -5477 5478 0
-2412 5474 5477 5478 0
2412 -5474 5477 5478 0
2420 2536 5478 -5479 0
-2420 -2536 5478 -5479 0
2420 -2536 -5478 -5479 0
2536 -2420 -5478 -5479 0
5479 -5478 -2420 -2536 0
2420 2536 -5478 5479 0
2536 -2420 5478 5479 0
2420 -2536 5478 5479 0
2598 2663 5479 -5480 0
-2598 -2663 5479 -5480 0
2598 -2663 -5479 -5480 0
2663 -2598 -5479 -5480 0
5480 -5479 -2598 -2663 0
2598 2663 -5479 5480 0
2663 -2598 5479 5480 0
2598 -2663 5479 5480 0
2722 2784 5480 -5481 0
-2722 -2784 5480 -5481 0
2722 -2784 -5480 -5481 0
2784 -2722 -5480 -5481 0
5481 -5480 -2722 -2784 0
2722 2784 -5480 5481 0
2784 -2722 5480 5481 0
2722 -2784 5480 5481 0
2849 2908 5481 -5482 0
-2849 -2908 5481 -5482 0
2849 -2908 -5481 -5482 0
2908 -2849 -5481 -5482 0
5482 -5481 -2849 -2908 0
2849 2908 -5481 5482 0
2908 -2849 5481 5482 0
2849 -2908 5481 5482 0
2970 3032 5482 -5483 0
-2970 -3032 5482 -5483 0
2970 -3032 -5482 -5483 0
3032 -2970 -5482 -5483 0
5483 -5482 -2970 -3032 0
2970 3032 -5482 5483 0
3032 -2970 5482 5483 0
2970 -3032 5482 5483 0
3094 3156 5483 -5484 0
-3094 -3156 5483 -5484 0
3094 -3156 -5483 -5484 0
3156 -3094 -5483 -5484 0
5484 -5483 -3094 -3156 0
3094 3156 -5483 5484 0
3156 -3094 5483 5484 0
3094 -3156 5483 5484 0
3218 3280 5484 -5485 0
-3218 -3280 5484 -5485 0
3218 -3280 -5484 -5485 0
3280 -3218 -5484 -5485 0
5485 -5484 -3218 -3280 0
3218 3280 -5484 5485 0
3280 -3218 5484 5485 0
3218 -3280 5484 5485 0
3342 3404 5485 -5486 0
-3342 -3404 5485 -5486 0
3342 -3404 -5485 -5486 0
3404 -3342 -5485 -5486 0
5486 -5485 -3342 -3404 0
3342 3404 -5485 5486 0
3404 -3342 5485 5486 0
3342 -3404 5485 5486 0
3466 3528 5486 -5487 0
-3466 -3528 5486 -5487 0
3466 -3528 -5486 -5487 0
3528 -3466 -5486 -5487 0
5487 -5486 -3466 -3528 0
3466 3528 -5486 5487 0
3528 -3466 5486 5487 0
3466 -3528 5486 5487 0
3590 3652 5487 -5488 0
-3590 -3652 5487 -5488 0
3590 -3652 -5487 -5488 0
3652 -3590 -5487 -5488 0
5488 -5487 -3590 -3652 0
3590 3652 -5487 5488 0
3652 -3590 5487 5488 0
3590 -3652 5487 5488 0
3714 3776 5488 -5489 0
-3714 -3776 5488 -5489 0
3714 -3776 -5488 -5489 0
3776 -3714 -5488 -5489 0
5489 -5488 -3714 -3776 0
3714 3776 -5488 5489 0
3776 -3714 5488 5489 0
3714 -3776 5488 5489 0
3838 3900 5489 -5490 0
-3838 -3900 5489 -5490 0
3838 -3900 -5489 -5490 0
3900 -3838 -5489 -5490 0
5490 -5489 -3838 -3900 0
3838 3900 -5489 5490 0
3900 -3838 5489 5490 0
3838 -3900 5489 5490 0
3962 4024 5490 -5491 0
-3962 -4024 5490 -5491 0
3962 -4024 -5490 -5491 0
4024 -3962 -5490 -5491 0
5491 -5490 -3962 -4024 0
3962 4024 -5490 5491 0
4024 -3962 5490 5491 0
3962 -4024 5490 5491 0
-5491 0
2078 -2140 -5492 0
2140 -2078 -5492 0
5492 -2078 -2140 0
5492 2078 2140 0
2202 2267 5492 -5493 0
-2202 -2267 5492 -5493 0
2202 -2267 -5492 -5493 0
2267 -2202 -5492 -5493 0
5493 -5492 -2202 -2267 0
2202 2267 -5492 5493 0
2267 -2202 5492 5493 0
2202 -2267 5492 5493 0
2326 2388 5493 -5494 0
-2326 -2388 5493 -5494 0
2326 -2388 -5493 -5494 0
2388 -2326 -5493 -5494 0
5494 -5493 -2326 -2388 0
2326 2388 -5493 5494 0
2388 -2326 5493 5494 0
2326 -2388 5493 5494 0
2453 2512 5494 -5495 0
-2453 -2512 5494 -5495 0
2453 -2512 -5494 -5495 0
2512 -2453 -5494 -5495 0
5495 -5494 -2453 -2512 0
2453 2512 -5494 5495 0
2512 -2453 5494 5495 0
2453 -2512 5494 5495 0
-2542 5495 -5496 0
2542 -5495 -5496 0
5496 -5495 -2542 0
2542 5495 5496 0
-2604 5496 -5497 0
2604 -5496 -5497 0
5497 -5496 -2604 0
2604 5496 5497 0
-2666 5497 -5498 0
2666 -5497 -5498 0
5498 -5497 -2666 0
2666 5497 5498 0
-2728 5498 -5499 0
2728 -5498 -5499 0
5499 -5498 -2728 0
2728 5498 5499 0
2105 -2167 -5500 0
2167 -2105 -5500 0
5500 -2105 -2167 0
5500 2105 2167 0
2229 2291 5500 -5501 0
-2229 -2291 5500 -5501 0
2229 -2291 -5500 -5501 0
2291 -2229 -5500 -5501 0
5501 -5500 -2229 -2291 0
2229 2291 -5500 5501 0
2291 -2229 5500 5501 0
2229 -2291 5500 5501 0
2353 2415 5501 -5502 0
-2353 -2415 5501 -5502 0
2353 -2415 -5501 -5502 0
2415 -2353 -5501 -5502 0
5502 -5501 -2353 -2415 0
2353 2415 -5501 5502 0
2415 -2353 5501 5502 0
2353 -2415 5501 5502 0
2477 2539 5502 -5503 0
-2477 -2539 5502 -5503 0
2477 -2539 -5502 -5503 0
2539 -2477 -5502 -5503 0
5503 -5502 -2477 -2539 0
2477 2539 -5502 5503 0
2539 -2477 5502 5503 0
2477 -2539 5502 5503 0
2601 5496 5503 -5504 0
-2601 -5496 5503 -5504 0
2601 -5496 -5503 -5504 0
-2601 5496 -5503 -5504 0
-2601 -5496 -5503 5504 0
2601 5496 -5503 5504 0
-2601 5496 5503 5504 0
2601 -5496 5503 5504 0
2606 2725 5504 -5505 0
-2606 -2725 5504 -5505 0
2606 -2725 -5504 -5505 0
2725 -2606 -5504 -5505 0
-2606 -2725 -5504 5505 0
2606 2725 -5504 5505 0
2725 -2606 5504 5505 0
2606 -2725 5504 5505 0
2787 5499 5505 -5506 0
-2787 -5499 5505 -5506 0
2787 -5499 -5505 -5506 0
-2787 5499 -5505 -5506 0
-2787 -5499 -5505 5506 0
2787 5499 -5505 5506 0
-2787 5499 5505 5506 0
2787 -5499 5505 5506 0
2792 2911 5506 -5507 0
-2792 -2911 5506 -5507 0
2792 -2911 -5506 -5507 0
2911 -2792 -5506 -5507 0
5507 -5506 -2792 -2911 0
2792 2911 -5506 5507 0
2911 -2792 5506 5507 0
2792 -2911 5506 5507 0
2973 3035 5507 -5508 0
-2973 -3035 5507 -5508 0
2973 -3035 -5507 -5508 0
3035 -2973 -5507 -5508 0
5508 -5507 -2973 -3035 0
2973 3035 -5507 5508 0
3035 -2973 5507 5508 0
2973 -3035 5507 5508 0
3097 3159 5508 -5509 0
-3097 -3159 5508 -5509 0
3097 -3159 -5508 -5509 0
3159 -3097 -5508 -5509 0
5509 -5508 -3097 -3159 0
3097 3159 -5508 5509 0
3159 -3097 5508 5509 0
3097 -3159 5508 5509 0
3221 3283 5509 -5510 0
-3221 -3283 5509 -5510 0
3221 -3283 -5509 -5510 0
3283 -3221 -5509 -5510 0
5510 -5509 -3221 -3283 0
3221 3283 -5509 5510 0
3283 -3221 5509 5510 0
3221 -3283 5509 5510 0
3345 3407 5510 -5511 0
-3345 -3407 5510 -5511 0
3345 -3407 -5510 -5511 0
3407 -3345 -5510 -5511 0
5511 -5510 -3345 -3407 0
3345 3407 -5510 5511 0
3407 -3345 5510 5511 0
3345 -3407 5510 5511 0
3469 3531 5511 -5512 0
-3469 -3531 5511 -5512 0
3469 -3531 -5511 -5512 0
3531 -3469 -5511 -5512 0
5512 -5511 -3469 -3531 0
3469 3531 -5511 5512 0
3531 -3469 5511 5512 0
3469 -3531 5511 5512 0
3593 3655 5512 -5513 0
-3593 -3655 5512 -5513 0
3593 -3655 -5512 -5513 0
3655 -3593 -5512 -5513 0
5513 -5512 -3593 -3655 0
3593 3655 -5512 5513 0
3655 -3593 5512 5513 0
3593 -3655 5512 5513 0
3717 3779 5513 -5514 0
-3717 -3779 5513 -5514 0
3717 -3779 -5513 -5514 0
3779 -3717 -5513 -5514 0
5514 -5513 -3717 -3779 0
3717 3779 -5513 5514 0
3779 -3717 5513 5514 0
3717 -3779 5513 5514 0
3841 3903 5514 -5515 0
-3841 -3903 5514 -5515 0
3841 -3903 -5514 -5515 0
3903 -3841 -5514 -5515 0
5515 -5514 -3841 -3903 0
3841 3903 -5514 5515 0
3903 -3841 5514 5515 0
3841 -3903 5514 5515 0
3965 4027 5515 -5516 0
-3965 -4027 5515 -5516 0
3965 -4027 -5515 -5516 0
4027 -3965 -5515 -5516 0
5516 -5515 -3965 -4027 0
3965 4027 -5515 5516 0
4027 -3965 5515 5516 0
3965 -4027 5515 5516 0
-5516 0
20 -79 -5517 0
79 -20 -5517 0
5517 -20 -79 0
5517 20 79 0
141 209 5517 -5518 0
-141 -209 5517 -5518 0
141 -209 -5517 -5518 0
209 -141 -5517 -5518 0
5518 -5517 -141 -209 0
141 209 -5517 5518 0
209 -141 5517 5518 0
141 -209 5517 5518 0
271 333 5518 -5519 0
-271 -333 5518 -5519 0
271 -333 -5518 -5519 0
333 -271 -5518 -5519 0
5519 -5518 -271 -333 0
271 333 -5518 5519 0
333 -271 5518 5519 0
271 -333 5518 5519 0
395 457 5519 -5520 0
-395 -457 5519 -5520 0
395 -457 -5519 -5520 0
457 -395 -5519 -5520 0
5520 -5519 -395 -457 0
395 457 -5519 5520 0
457 -395 5519 5520 0
395 -457 5519 5520 0
519 581 5520 -5521 0
-519 -581 5520 -5521 0
519 -581 -5520 -5521 0
581 -519 -5520 -5521 0
5521 -5520 -519 -581 0
519 581 -5520 5521 0
581 -519 5520 5521 0
519 -581 5520 5521 0
643 705 5521 -5522 0
-643 -705 5521 -5522 0
643 -705 -5521 -5522 0
705 -643 -5521 -5522 0
5522 -5521 -643 -705 0
643 705 -5521 5522 0
705 -643 5521 5522 0
643 -705 5521 5522 0
767 829 5522 -5523 0
-767 -829 5522 -5523 0
767 -829 -5522 -5523 0
829 -767 -5522 -5523 0
5523 -5522 -767 -829 0
767 829 -5522 5523 0
829 -767 5522 5523 0
767 -829 5522 5523 0
891 953 5523 -5524 0
-891 -953 5523 -5524 0
891 -953 -5523 -5524 0
953 -891 -5523 -5524 0
5524 -5523 -891 -953 0
891 953 -5523 5524 0
953 -891 5523 5524 0
891 -953 5523 5524 0
1012 1077 5524 -5525 0
-1012 -1077 5524 -5525 0
1012 -1077 -5524 -5525 0
1077 -1012 -5524 -5525 0
5525 -5524 -1012 -1077 0
1012 1077 -5524 5525 0
1077 -1012 5524 5525 0
1012 -1077 5524 5525 0
1131 5306 5525 -5526 0
-1131 5306 -5525 -5526 0
-1131 -5306 5525 -5526 0
1131 -5306 -5525 -5526 0
5526 -5306 -5525 -1131 0
1131 -5306 5525 5526 0
1131 5306 -5525 5526 0
-1131 5306 5525 5526 0
1201 1263 5526 -5527 0
-1201 -1263 5526 -5527 0
1201 -1263 -5526 -5527 0
1263 -1201 -5526 -5527 0
5527 -5526 -1201 -1263 0
1201 1263 -5526 5527 0
1263 -1201 5526 5527 0
1201 -1263 5526 5527 0
1325 1387 5527 -5528 0
-1325 -1387 5527 -5528 0
1325 -1387 -5527 -5528 0
1387 -1325 -5527 -5528 0
5528 -5527 -1325 -1387 0
1325 1387 -5527 5528 0
1387 -1325 5527 5528 0
1325 -1387 5527 5528 0
1449 1511 5528 -5529 0
-1449 -1511 5528 -5529 0
1449 -1511 -5528 -5529 0
1511 -1449 -5528 -5529 0
5529 -5528 -1449 -1511 0
1449 1511 -5528 5529 0
1511 -1449 5528 5529 0
1449 -1511 5528 5529 0
1573 1635 5529 -5530 0
-1573 -1635 5529 -5530 0
1573 -1635 -5529 -5530 0
1635 -1573 -5529 -5530 0
5530 -5529 -1573 -1635 0
1573 1635 -5529 5530 0
1635 -1573 5529 5530 0
1573 -1635 5529 5530 0
1697 1759 5530 -5531 0
-1697 -1759 5530 -5531 0
1697 -1759 -5530 -5531 0
1759 -1697 -5530 -5531 0
5531 -5530 -1697 -1759 0
1697 1759 -5530 5531 0
1759 -1697 5530 5531 0
1697 -1759 5530 5531 0
1821 1883 5531 -5532 0
-1821 -1883 5531 -5532 0
1821 -1883 -5531 -5532 0
1883 -1821 -5531 -5532 0
5532 -5531 -1821 -1883 0
1821 1883 -5531 5532 0
1883 -1821 5531 5532 0
1821 -1883 5531 5532 0
1945 2052 5532 -5533 0
-1945 -2052 5532 -5533 0
1945 -2052 -5532 -5533 0
2052 -1945 -5532 -5533 0
5533 -5532 -1945 -2052 0
1945 2052 -5532 5533 0
2052 -1945 5532 5533 0
1945 -2052 5532 5533 0
17 82 144 -5534 0
17 -82 -144 -5534 0
82 -17 -144 -5534 0
144 -17 -82 -5534 0
5534 -17 -82 -144 0
82 144 -17 5534 0
17 144 -82 5534 0
5534 17 82 -144 0
206 268 5534 -5535 0
-206 -268 5534 -5535 0
206 -268 -5534 -5535 0
268 -206 -5534 -5535 0
5535 -5534 -206 -268 0
206 268 -5534 5535 0
268 -206 5534 5535 0
206 -268 5534 5535 0
330 392 5535 -5536 0
-330 -392 5535 -5536 0
330 -392 -5535 -5536 0
392 -330 -5535 -5536 0
5536 -5535 -330 -392 0
330 392 -5535 5536 0
392 -330 5535 5536 0
330 -392 5535 5536 0
454 516 5536 -5537 0
-454 -516 5536 -5537 0
454 -516 -5536 -5537 0
516 -454 -5536 -5537 0
5537 -5536 -454 -516 0
454 516 -5536 5537 0
516 -454 5536 5537 0
454 -516 5536 5537 0
578 640 5537 -5538 0
-578 -640 5537 -5538 0
578 -640 -5537 -5538 0
640 -578 -5537 -5538 0
-578 -640 -5537 5538 0
578 640 -5537 5538 0
640 -578 5537 5538 0
578 -640 5537 5538 0
702 764 5538 -5539 0
-702 -764 5538 -5539 0
702 -764 -5538 -5539 0
764 -702 -5538 -5539 0
5539 -5538 -702 -764 0
702 764 -5538 5539 0
764 -702 5538 5539 0
702 -764 5538 5539 0
826 888 5539 -5540 0
-826 -888 5539 -5540 0
826 -888 -5539 -5540 0
888 -826 -5539 -5540 0
5540 -5539 -826 -888 0
826 888 -5539 5540 0
888 -826 5539 5540 0
826 -888 5539 5540 0
950 5304 5540 -5541 0
-950 5304 -5540 -5541 0
-950 -5304 5540 -5541 0
950 -5304 -5540 -5541 0
5541 -5304 -5540 -950 0
950 -5304 5540 5541 0
950 5304 -5540 5541 0
-950 5304 5540 5541 0
1007 1074 5541 -5542 0
-1007 -1074 5541 -5542 0
1007 -1074 -5541 -5542 0
1074 -1007 -5541 -5542 0
5542 -5541 -1007 -1074 0
1007 1074 -5541 5542 0
1074 -1007 5541 5542 0
1007 -1074 5541 5542 0
1136 1198 5542 -5543 0
-1136 -1198 5542 -5543 0
1136 -1198 -5542 -5543 0
1198 -1136 -5542 -5543 0
5543 -5542 -1136 -1198 0
1136 1198 -5542 5543 0
1198 -1136 5542 5543 0
1136 -1198 5542 5543 0
1260 1322 5543 -5544 0
-1260 -1322 5543 -5544 0
1260 -1322 -5543 -5544 0
1322 -1260 -5543 -5544 0
5544 -5543 -1260 -1322 0
1260 1322 -5543 5544 0
1322 -1260 5543 5544 0
1260 -1322 5543 5544 0
1384 1446 5544 -5545 0
-1384 -1446 5544 -5545 0
1384 -1446 -5544 -5545 0
1446 -1384 -5544 -5545 0
5545 -5544 -1384 -1446 0
1384 1446 -5544 5545 0
1446 -1384 5544 5545 0
1384 -1446 5544 5545 0
1508 1570 5545 -5546 0
-1508 -1570 5545 -5546 0
1508 -1570 -5545 -5546 0
1570 -1508 -5545 -5546 0
5546 -5545 -1508 -1570 0
1508 1570 -5545 5546 0
1570 -1508 5545 5546 0
1508 -1570 5545 5546 0
1632 1694 5546 -5547 0
-1632 -1694 5546 -5547 0
1632 -1694 -5546 -5547 0
1694 -1632 -5546 -5547 0
5547 -5546 -1632 -1694 0
1632 1694 -5546 5547 0
1694 -1632 5546 5547 0
1632 -1694 5546 5547 0
1756 1818 5547 -5548 0
-1756 -1818 5547 -5548 0
1756 -1818 -5547 -5548 0
1818 -1756 -5547 -5548 0
5548 -5547 -1756 -1818 0
1756 1818 -5547 5548 0
1818 -1756 5547 5548 0
1756 -1818 5547 5548 0
1880 1942 5548 -5549 0
-1880 -1942 5548 -5549 0
1880 -1942 -5548 -5549 0
1942 -1880 -5548 -5549 0
5549 -5548 -1880 -1942 0
1880 1942 -5548 5549 0
1942 -1880 5548 5549 0
1880 -1942 5548 5549 0
2033 -5549 -5550 0
-2033 5549 -5550 0
-2033 -5549 5550 0
2033 5549 5550 0
2047 5533 5550 -5551 0
-2047 -5533 5550 -5551 0
2047 -5533 -5550 -5551 0
-2047 5533 -5550 -5551 0
-2047 -5533 -5550 5551 0
2047 5533 -5550 5551 0
-2047 5533 5550 5551 0
2047 -5533 5550 5551 0
2109 2200 5551 -5552 0
-2109 -2200 5551 -5552 0
2109 -2200 -5551 -5552 0
2200 -2109 -5551 -5552 0
5552 -5551 -2109 -2200 0
2109 2200 -5551 5552 0
2200 -2109 5551 5552 0
2109 -2200 5551 5552 0
2265 2324 5552 -5553 0
-2265 -2324 5552 -5553 0
2265 -2324 -5552 -5553 0
2324 -2265 -5552 -5553 0
5553 -5552 -2265 -2324 0
2265 2324 -5552 5553 0
2324 -2265 5552 5553 0
2265 -2324 5552 5553 0
2386 2451 5553 -5554 0
-2386 -2451 5553 -5554 0
2386 -2451 -5553 -5554 0
2451 -2386 -5553 -5554 0
5554 -5553 -2386 -2451 0
2386 2451 -5553 5554 0
2451 -2386 5553 5554 0
2386 -2451 5553 5554 0
2510 2572 5554 -5555 0
-2510 -2572 5554 -5555 0
2510 -2572 -5554 -5555 0
2572 -2510 -5554 -5555 0
5555 -5554 -2510 -2572 0
2510 2572 -5554 5555 0
2572 -2510 5554 5555 0
2510 -2572 5554 5555 0
2637 2696 5555 -5556 0
-2637 -2696 5555 -5556 0
2637 -2696 -5555 -5556 0
2696 -2637 -5555 -5556 0
-2637 -2696 -5555 5556 0
2637 2696 -5555 5556 0
2696 -2637 5555 5556 0
2637 -2696 5555 5556 0
2758 2823 5556 -5557 0
-2758 -2823 5556 -5557 0
2758 -2823 -5556 -5557 0
2823 -2758 -5556 -5557 0
5557 -5556 -2758 -2823 0
2758 2823 -5556 5557 0
2823 -2758 5556 5557 0
2758 -2823 5556 5557 0
2882 2944 5557 -5558 0
-2882 -2944 5557 -5558 0
2882 -2944 -5557 -5558 0
2944 -2882 -5557 -5558 0
5558 -5557 -2882 -2944 0
2882 2944 -5557 5558 0
2944 -2882 5557 5558 0
2882 -2944 5557 5558 0
3006 3068 5558 -5559 0
-3006 -3068 5558 -5559 0
3006 -3068 -5558 -5559 0
3068 -3006 -5558 -5559 0
5559 -5558 -3006 -3068 0
3006 3068 -5558 5559 0
3068 -3006 5558 5559 0
3006 -3068 5558 5559 0
3133 3192 5559 -5560 0
-3133 -3192 5559 -5560 0
3133 -3192 -5559 -5560 0
3192 -3133 -5559 -5560 0
5560 -5559 -3133 -3192 0
3133 3192 -5559 5560 0
3192 -3133 5559 5560 0
3133 -3192 5559 5560 0
3254 3319 5560 -5561 0
-3254 -3319 5560 -5561 0
3254 -3319 -5560 -5561 0
3319 -3254 -5560 -5561 0
5561 -5560 -3254 -3319 0
3254 3319 -5560 5561 0
3319 -3254 5560 5561 0
3254 -3319 5560 5561 0
3378 3440 5561 -5562 0
-3378 -3440 5561 -5562 0
3378 -3440 -5561 -5562 0
3440 -3378 -5561 -5562 0
5562 -5561 -3378 -3440 0
3378 3440 -5561 5562 0
3440 -3378 5561 5562 0
3378 -3440 5561 5562 0
3502 3564 5562 -5563 0
-3502 -3564 5562 -5563 0
3502 -3564 -5562 -5563 0
3564 -3502 -5562 -5563 0
5563 -5562 -3502 -3564 0
3502 3564 -5562 5563 0
3564 -3502 5562 5563 0
3502 -3564 5562 5563 0
3626 3688 5563 -5564 0
-3626 -3688 5563 -5564 0
3626 -3688 -5563 -5564 0
3688 -3626 -5563 -5564 0
5564 -5563 -3626 -3688 0
3626 3688 -5563 5564 0
3688 -3626 5563 5564 0
3626 -3688 5563 5564 0
3753 3812 5564 -5565 0
-3753 -3812 5564 -5565 0
3753 -3812 -5564 -5565 0
3812 -3753 -5564 -5565 0
5565 -5564 -3753 -3812 0
3753 3812 -5564 5565 0
3812 -3753 5564 5565 0
3753 -3812 5564 5565 0
3874 3939 5565 -5566 0
-3874 -3939 5565 -5566 0
3874 -3939 -5565 -5566 0
3939 -3874 -5565 -5566 0
5566 -5565 -3874 -3939 0
3874 3939 -5565 5566 0
3939 -3874 5565 5566 0
3874 -3939 5565 5566 0
1 -15 -5567 0
15 -1 -5567 0
-1 -15 5567 0
1 15 5567 0
20 77 5567 -5568 0
-20 -77 5567 -5568 0
20 -77 -5567 -5568 0
77 -20 -5567 -5568 0
5568 -5567 -20 -77 0
20 77 -5567 5568 0
77 -20 5567 5568 0
20 -77 5567 5568 0
168 233 5568 -5569 0
-168 -233 5568 -5569 0
168 -233 -5568 -5569 0
233 -168 -5568 -5569 0
5569 -5568 -168 -233 0
168 233 -5568 5569 0
233 -168 5568 5569 0
168 -233 5568 5569 0
292 354 5569 -5570 0
-292 -354 5569 -5570 0
292 -354 -5569 -5570 0
354 -292 -5569 -5570 0
5570 -5569 -292 -354 0
292 354 -5569 5570 0
354 -292 5569 5570 0
292 -354 5569 5570 0
419 478 5570 -5571 0
-419 -478 5570 -5571 0
419 -478 -5570 -5571 0
478 -419 -5570 -5571 0
5571 -5570 -419 -478 0
419 478 -5570 5571 0
478 -419 5570 5571 0
419 -478 5570 5571 0
540 605 5571 -5572 0
-540 -605 5571 -5572 0
540 -605 -5571 -5572 0
605 -540 -5571 -5572 0
5572 -5571 -540 -605 0
540 605 -5571 5572 0
605 -540 5571 5572 0
540 -605 5571 5572 0
664 726 5572 -5573 0
-664 -726 5572 -5573 0
664 -726 -5572 -5573 0
726 -664 -5572 -5573 0
5573 -5572 -664 -726 0
664 726 -5572 5573 0
726 -664 5572 5573 0
664 -726 5572 5573 0
791 850 5573 -5574 0
-791 -850 5573 -5574 0
791 -850 -5573 -5574 0
850 -791 -5573 -5574 0
5574 -5573 -791 -850 0
791 850 -5573 5574 0
850 -791 5573 5574 0
791 -850 5573 5574 0
912 974 5574 -5575 0
-912 -974 5574 -5575 0
912 -974 -5574 -5575 0
974 -912 -5574 -5575 0
5575 -5574 -912 -974 0
912 974 -5574 5575 0
974 -912 5574 5575 0
912 -974 5574 5575 0
1036 1101 5575 -5576 0
-1036 -1101 5575 -5576 0
1036 -1101 -5575 -5576 0
1101 -1036 -5575 -5576 0
5576 -5575 -1036 -1101 0
1036 1101 -5575 5576 0
1101 -1036 5575 5576 0
1036 -1101 5575 5576 0
1160 1222 5576 -5577 0
-1160 -1222 5576 -5577 0
1160 -1222 -5576 -5577 0
1222 -1160 -5576 -5577 0
5577 -5576 -1160 -1222 0
1160 1222 -5576 5577 0
1222 -1160 5576 5577 0
1160 -1222 5576 5577 0
1287 1346 5577 -5578 0
-1287 -1346 5577 -5578 0
1287 -1346 -5577 -5578 0
1346 -1287 -5577 -5578 0
5578 -5577 -1287 -1346 0
1287 1346 -5577 5578 0
1346 -1287 5577 5578 0
1287 -1346 5577 5578 0
1408 1470 5578 -5579 0
-1408 -1470 5578 -5579 0
1408 -1470 -5578 -5579 0
1470 -1408 -5578 -5579 0
5579 -5578 -1408 -1470 0
1408 1470 -5578 5579 0
1470 -1408 5578 5579 0
1408 -1470 5578 5579 0
1532 1594 5579 -5580 0
-1532 -1594 5579 -5580 0
1532 -1594 -5579 -5580 0
1594 -1532 -5579 -5580 0
5580 -5579 -1532 -1594 0
1532 1594 -5579 5580 0
1594 -1532 5579 5580 0
1532 -1594 5579 5580 0
1656 1721 5580 -5581 0
-1656 -1721 5580 -5581 0
1656 -1721 -5580 -5581 0
1721 -1656 -5580 -5581 0
5581 -5580 -1656 -1721 0
1656 1721 -5580 5581 0
1721 -1656 5580 5581 0
1656 -1721 5580 5581 0
1780 1842 5581 -5582 0
-1780 -1842 5581 -5582 0
1780 -1842 -5581 -5582 0
1842 -1780 -5581 -5582 0
5582 -5581 -1780 -1842 0
1780 1842 -5581 5582 0
1842 -1780 5581 5582 0
1780 -1842 5581 5582 0
1907 1966 5582 -5583 0
-1907 -1966 5582 -5583 0
1907 -1966 -5582 -5583 0
1966 -1907 -5582 -5583 0
5583 -5582 -1907 -1966 0
1907 1966 -5582 5583 0
1966 -1907 5582 5583 0
1907 -1966 5582 5583 0
3998 5566 5583 0
5583 -5566 -3998 0
-3998 5566 -5583 0
3998 -5566 -5583 0
28 90 152 -5584 0
28 -90 -152 -5584 0
90 -28 -152 -5584 0
152 -28 -90 -5584 0
5584 -28 -90 -152 0
90 152 -28 5584 0
28 152 -90 5584 0
5584 28 90 -152 0
217 276 5584 -5585 0
-217 -276 5584 -5585 0
217 -276 -5584 -5585 0
276 -217 -5584 -5585 0
5585 -5584 -217 -276 0
217 276 -5584 5585 0
276 -217 5584 5585 0
217 -276 5584 5585 0
326 5363 5585 -5586 0
-326 -5363 5585 -5586 0
-326 5363 -5585 -5586 0
326 -5363 -5585 -5586 0
-326 -5363 -5585 5586 0
326 5363 -5585 5586 0
326 -5363 5585 5586 0
-326 5363 5585 5586 0
403 465 5586 -5587 0
-403 -465 5586 -5587 0
403 -465 -5586 -5587 0
465 -403 -5586 -5587 0
5587 -5586 -403 -465 0
403 465 -5586 5587 0
465 -403 5586 5587 0
403 -465 5586 5587 0
524 589 5587 -5588 0
-524 -589 5587 -5588 0
524 -589 -5587 -5588 0
589 -524 -5587 -5588 0
5588 -5587 -524 -589 0
524 589 -5587 5588 0
589 -524 5587 5588 0
524 -589 5587 5588 0
636 5387 5588 -5589 0
-636 -5387 5588 -5589 0
-636 5387 -5588 -5589 0
636 -5387 -5588 -5589 0
-636 -5387 -5588 5589 0
636 5387 -5588 5589 0
636 -5387 5588 5589 0
-636 5387 5588 5589 0
713 775 5589 -5590 0
-713 -775 5589 -5590 0
713 -775 -5589 -5590 0
775 -713 -5589 -5590 0
5590 -5589 -713 -775 0
713 775 -5589 5590 0
775 -713 5589 5590 0
713 -775 5589 5590 0
837 899 5590 -5591 0
-837 -899 5590 -5591 0
837 -899 -5590 -5591 0
899 -837 -5590 -5591 0
5591 -5590 -837 -899 0
837 899 -5590 5591 0
899 -837 5590 5591 0
837 -899 5590 5591 0
961 1020 5591 -5592 0
-961 -1020 5591 -5592 0
961 -1020 -5591 -5592 0
1020 -961 -5591 -5592 0
5592 -5591 -961 -1020 0
961 1020 -5591 5592 0
1020 -961 5591 5592 0
961 -1020 5591 5592 0
1085 1144 5592 -5593 0
-1085 -1144 5592 -5593 0
1085 -1144 -5592 -5593 0
1144 -1085 -5592 -5593 0
5593 -5592 -1085 -1144 0
1085 1144 -5592 5593 0
1144 -1085 5592 5593 0
1085 -1144 5592 5593 0
1206 1271 5593 -5594 0
-1206 -1271 5593 -5594 0
1206 -1271 -5593 -5594 0
1271 -1206 -5593 -5594 0
5594 -5593 -1206 -1271 0
1206 1271 -5593 5594 0
1271 -1206 5593 5594 0
1206 -1271 5593 5594 0
-1316 5594 -5595 0
1316 -5594 -5595 0
5595 -5594 -1316 0
1316 5594 5595 0
1392 1457 5595 -5596 0
-1392 -1457 5595 -5596 0
1392 -1457 -5595 -5596 0
1457 -1392 -5595 -5596 0
5596 -5595 -1392 -1457 0
1392 1457 -5595 5596 0
1457 -1392 5595 5596 0
1392 -1457 5595 5596 0
1516 1581 5596 -5597 0
-1516 -1581 5596 -5597 0
1516 -1581 -5596 -5597 0
1581 -1516 -5596 -5597 0
5597 -5596 -1516 -1581 0
1516 1581 -5596 5597 0
1581 -1516 5596 5597 0
1516 -1581 5596 5597 0
-1626 5597 -5598 0
1626 -5597 -5598 0
5598 -5597 -1626 0
1626 5597 5598 0
1705 1767 5598 -5599 0
-1705 -1767 5598 -5599 0
1705 -1767 -5598 -5599 0
1767 -1705 -5598 -5599 0
5599 -5598 -1705 -1767 0
1705 1767 -5598 5599 0
1767 -1705 5598 5599 0
1705 -1767 5598 5599 0
1829 1891 5599 -5600 0
-1829 -1891 5599 -5600 0
1829 -1891 -5599 -5600 0
1891 -1829 -5599 -5600 0
5600 -5599 -1829 -1891 0
1829 1891 -5599 5600 0
1891 -1829 5599 5600 0
1829 -1891 5599 5600 0
1953 2060 5600 -5601 0
-1953 -2060 5600 -5601 0
1953 -2060 -5600 -5601 0
2060 -1953 -5600 -5601 0
5601 -5600 -1953 -2060 0
1953 2060 -5600 5601 0
2060 -1953 5600 5601 0
1953 -2060 5600 5601 0
2122 2184 5601 -5602 0
-2122 -2184 5601 -5602 0
2122 -2184 -5601 -5602 0
2184 -2122 -5601 -5602 0
5602 -5601 -2122 -2184 0
2122 2184 -5601 5602 0
2184 -2122 5601 5602 0
2122 -2184 5601 5602 0
2249 2308 5602 -5603 0
-2249 -2308 5602 -5603 0
2249 -2308 -5602 -5603 0
2308 -2249 -5602 -5603 0
5603 -5602 -2249 -2308 0
2249 2308 -5602 5603 0
2308 -2249 5602 5603 0
2249 -2308 5602 5603 0
2358 5473 5603 -5604 0
-2358 -5473 5603 -5604 0
-2358 5473 -5603 -5604 0
2358 -5473 -5603 -5604 0
-2358 -5473 -5603 5604 0
2358 5473 -5603 5604 0
2358 -5473 5603 5604 0
-2358 5473 5603 5604 0
2435 2497 5604 -5605 0
-2435 -2497 5604 -5605 0
2435 -2497 -5604 -5605 0
2497 -2435 -5604 -5605 0
5605 -5604 -2435 -2497 0
2435 2497 -5604 5605 0
2497 -2435 5604 5605 0
2435 -2497 5604 5605 0
2556 2621 5605 -5606 0
-2556 -2621 5605 -5606 0
2556 -2621 -5605 -5606 0
2621 -2556 -5605 -5606 0
5606 -5605 -2556 -2621 0
2556 2621 -5605 5606 0
2621 -2556 5605 5606 0
2556 -2621 5605 5606 0
2668 5497 5606 -5607 0
-2668 5497 -5606 -5607 0
-2668 -5497 5606 -5607 0
2668 -5497 -5606 -5607 0
5607 -5497 -5606 -2668 0
2668 -5497 5606 5607 0
2668 5497 -5606 5607 0
-2668 5497 5606 5607 0
2745 2807 5607 -5608 0
-2745 -2807 5607 -5608 0
2745 -2807 -5607 -5608 0
2807 -2745 -5607 -5608 0
5608 -5607 -2745 -2807 0
2745 2807 -5607 5608 0
2807 -2745 5607 5608 0
2745 -2807 5607 5608 0
2869 2931 5608 -5609 0
-2869 -2931 5608 -5609 0
2869 -2931 -5608 -5609 0
2931 -2869 -5608 -5609 0
5609 -5608 -2869 -2931 0
2869 2931 -5608 5609 0
2931 -2869 5608 5609 0
2869 -2931 5608 5609 0
2993 3052 5609 -5610 0
-2993 -3052 5609 -5610 0
2993 -3052 -5609 -5610 0
3052 -2993 -5609 -5610 0
5610 -5609 -2993 -3052 0
2993 3052 -5609 5610 0
3052 -2993 5609 5610 0
2993 -3052 5609 5610 0
3117 3176 5610 -5611 0
-3117 -3176 5610 -5611 0
3117 -3176 -5610 -5611 0
3176 -3117 -5610 -5611 0
5611 -5610 -3117 -3176 0
3117 3176 -5610 5611 0
3176 -3117 5610 5611 0
3117 -3176 5610 5611 0
3238 3303 5611 -5612 0
-3238 -3303 5611 -5612 0
3238 -3303 -5611 -5612 0
3303 -3238 -5611 -5612 0
5612 -5611 -3238 -3303 0
3238 3303 -5611 5612 0
3303 -3238 5611 5612 0
3238 -3303 5611 5612 0
2041 -2096 -5613 0
2096 -2041 -5613 0
-2041 -2096 5613 0
2041 2096 5613 0
2158 2220 5613 -5614 0
-2158 -2220 5613 -5614 0
2158 -2220 -5613 -5614 0
2220 -2158 -5613 -5614 0
5614 -5613 -2158 -2220 0
2158 2220 -5613 5614 0
2220 -2158 5613 5614 0
2158 -2220 5613 5614 0
2285 2344 5614 -5615 0
-2285 -2344 5614 -5615 0
2285 -2344 -5614 -5615 0
2344 -2285 -5614 -5615 0
5615 -5614 -2285 -2344 0
2285 2344 -5614 5615 0
2344 -2285 5614 5615 0
2285 -2344 5614 5615 0
2406 2471 5615 -5616 0
-2406 -2471 5615 -5616 0
2406 -2471 -5615 -5616 0
2471 -2406 -5615 -5616 0
5616 -5615 -2406 -2471 0
2406 2471 -5615 5616 0
2471 -2406 5615 5616 0
2406 -2471 5615 5616 0
2530 2592 5616 -5617 0
-2530 -2592 5616 -5617 0
2530 -2592 -5616 -5617 0
2592 -2530 -5616 -5617 0
5617 -5616 -2530 -2592 0
2530 2592 -5616 5617 0
2592 -2530 5616 5617 0
2530 -2592 5616 5617 0
2657 2716 5617 -5618 0
-2657 -2716 5617 -5618 0
2657 -2716 -5617 -5618 0
2716 -2657 -5617 -5618 0
-2657 -2716 -5617 5618 0
2657 2716 -5617 5618 0
2716 -2657 5617 5618 0
2657 -2716 5617 5618 0
2778 2843 5618 -5619 0
-2778 -2843 5618 -5619 0
2778 -2843 -5618 -5619 0
2843 -2778 -5618 -5619 0
5619 -5618 -2778 -2843 0
2778 2843 -5618 5619 0
2843 -2778 5618 5619 0
2778 -2843 5618 5619 0
2902 2964 5619 -5620 0
-2902 -2964 5619 -5620 0
2902 -2964 -5619 -5620 0
2964 -2902 -5619 -5620 0
5620 -5619 -2902 -2964 0
2902 2964 -5619 5620 0
2964 -2902 5619 5620 0
2902 -2964 5619 5620 0
3026 3088 5620 -5621 0
-3026 -3088 5620 -5621 0
3026 -3088 -5620 -5621 0
3088 -3026 -5620 -5621 0
5621 -5620 -3026 -3088 0
3026 3088 -5620 5621 0
3088 -3026 5620 5621 0
3026 -3088 5620 5621 0
-3100 5621 -5622 0
3100 -5621 -5622 0
5622 -5621 -3100 0
3100 5621 5622 0
3212 3274 5622 -5623 0
-3212 -3274 5622 -5623 0
3212 -3274 -5622 -5623 0
3274 -3212 -5622 -5623 0
5623 -5622 -3212 -3274 0
3212 3274 -5622 5623 0
3274 -3212 5622 5623 0
3212 -3274 5622 5623 0
25 -87 -5624 0
87 -25 -5624 0
5624 -25 -87 0
5624 25 87 0
149 214 5624 -5625 0
-149 -214 5624 -5625 0
149 -214 -5624 -5625 0
214 -149 -5624 -5625 0
5625 -5624 -149 -214 0
149 214 -5624 5625 0
214 -149 5624 5625 0
149 -214 5624 5625 0
273 338 5625 -5626 0
-273 -338 5625 -5626 0
273 -338 -5625 -5626 0
338 -273 -5625 -5626 0
5626 -5625 -273 -338 0
273 338 -5625 5626 0
338 -273 5625 5626 0
273 -338 5625 5626 0
400 462 5626 -5627 0
-400 -462 5626 -5627 0
400 -462 -5626 -5627 0
462 -400 -5626 -5627 0
5627 -5626 -400 -462 0
400 462 -5626 5627 0
462 -400 5626 5627 0
400 -462 5626 5627 0
512 5385 5627 -5628 0
-512 5385 -5627 -5628 0
-512 -5385 5627 -5628 0
512 -5385 -5627 -5628 0
5628 -5385 -5627 -512 0
512 -5385 5627 5628 0
512 5385 -5627 5628 0
-512 5385 5627 5628 0
586 648 5628 -5629 0
-586 -648 5628 -5629 0
586 -648 -5628 -5629 0
648 -586 -5628 -5629 0
-586 -648 -5628 5629 0
586 648 -5628 5629 0
648 -586 5628 5629 0
586 -648 5628 5629 0
710 772 5629 -5630 0
-710 -772 5629 -5630 0
710 -772 -5629 -5630 0
772 -710 -5629 -5630 0
5630 -5629 -710 -772 0
710 772 -5629 5630 0
772 -710 5629 5630 0
710 -772 5629 5630 0
834 896 5630 -5631 0
-834 -896 5630 -5631 0
834 -896 -5630 -5631 0
896 -834 -5630 -5631 0
5631 -5630 -834 -896 0
834 896 -5630 5631 0
896 -834 5630 5631 0
834 -896 5630 5631 0
958 1017 5631 -5632 0
-958 -1017 5631 -5632 0
958 -1017 -5631 -5632 0
1017 -958 -5631 -5632 0
5632 -5631 -958 -1017 0
958 1017 -5631 5632 0
1017 -958 5631 5632 0
958 -1017 5631 5632 0
1082 1141 5632 -5633 0
-1082 -1141 5632 -5633 0
1082 -1141 -5632 -5633 0
1141 -1082 -5632 -5633 0
5633 -5632 -1082 -1141 0
1082 1141 -5632 5633 0
1141 -1082 5632 5633 0
1082 -1141 5632 5633 0
-1192 5633 -5634 0
1192 -5633 -5634 0
5634 -5633 -1192 0
1192 5633 5634 0
1268 1330 5634 -5635 0
-1268 -1330 5634 -5635 0
1268 -1330 -5634 -5635 0
1330 -1268 -5634 -5635 0
5635 -5634 -1268 -1330 0
1268 1330 -5634 5635 0
1330 -1268 5634 5635 0
1268 -1330 5634 5635 0
1389 1454 5635 -5636 0
-1389 -1454 5635 -5636 0
1389 -1454 -5635 -5636 0
1454 -1389 -5635 -5636 0
5636 -5635 -1389 -1454 0
1389 1454 -5635 5636 0
1454 -1389 5635 5636 0
1389 -1454 5635 5636 0
1502 1578 5636 -5637 0
-1502 -1578 5636 -5637 0
1502 -1578 -5636 -5637 0
1578 -1502 -5636 -5637 0
5637 -5636 -1502 -1578 0
1502 1578 -5636 5637 0
1578 -1502 5636 5637 0
1502 -1578 5636 5637 0
1640 1702 5637 -5638 0
-1640 -1702 5637 -5638 0
1640 -1702 -5637 -5638 0
1702 -1640 -5637 -5638 0
5638 -5637 -1640 -1702 0
1640 1702 -5637 5638 0
1702 -1640 5637 5638 0
1640 -1702 5637 5638 0
1764 1826 5638 -5639 0
-1764 -1826 5638 -5639 0
1764 -1826 -5638 -5639 0
1826 -1764 -5638 -5639 0
5639 -5638 -1764 -1826 0
1764 1826 -5638 5639 0
1826 -1764 5638 5639 0
1764 -1826 5638 5639 0
1888 1950 5639 -5640 0
-1888 -1950 5639 -5640 0
1888 -1950 -5639 -5640 0
1950 -1888 -5639 -5640 0
5640 -5639 -1888 -1950 0
1888 1950 -5639 5640 0
1950 -1888 5639 5640 0
1888 -1950 5639 5640 0
2057 2119 5640 -5641 0
-2057 -2119 5640 -5641 0
2057 -2119 -5640 -5641 0
2119 -2057 -5640 -5641 0
5641 -5640 -2057 -2119 0
2057 2119 -5640 5641 0
2119 -2057 5640 5641 0
2057 -2119 5640 5641 0
2181 2246 5641 -5642 0
-2181 -2246 5641 -5642 0
2181 -2246 -5641 -5642 0
2246 -2181 -5641 -5642 0
5642 -5641 -2181 -2246 0
2181 2246 -5641 5642 0
2246 -2181 5641 5642 0
2181 -2246 5641 5642 0
2305 2370 5642 -5643 0
-2305 -2370 5642 -5643 0
2305 -2370 -5642 -5643 0
2370 -2305 -5642 -5643 0
5643 -5642 -2305 -2370 0
2305 2370 -5642 5643 0
2370 -2305 5642 5643 0
2305 -2370 5642 5643 0
2432 2494 5643 -5644 0
-2432 -2494 5643 -5644 0
2432 -2494 -5643 -5644 0
2494 -2432 -5643 -5644 0
5644 -5643 -2432 -2494 0
2432 2494 -5643 5644 0
2494 -2432 5643 5644 0
2432 -2494 5643 5644 0
2544 5495 5644 -5645 0
-2544 5495 -5644 -5645 0
-2544 -5495 5644 -5645 0
2544 -5495 -5644 -5645 0
5645 -5495 -5644 -2544 0
2544 -5495 5644 5645 0
2544 5495 -5644 5645 0
-2544 5495 5644 5645 0
2618 2680 5645 -5646 0
-2618 -2680 5645 -5646 0
2618 -2680 -5645 -5646 0
2680 -2618 -5645 -5646 0
-2618 -2680 -5645 5646 0
2618 2680 -5645 5646 0
2680 -2618 5645 5646 0
2618 -2680 5645 5646 0
2742 2804 5646 -5647 0
-2742 -2804 5646 -5647 0
2742 -2804 -5646 -5647 0
2804 -2742 -5646 -5647 0
5647 -5646 -2742 -2804 0
2742 2804 -5646 5647 0
2804 -2742 5646 5647 0
2742 -2804 5646 5647 0
2866 2928 5647 -5648 0
-2866 -2928 5647 -5648 0
2866 -2928 -5647 -5648 0
2928 -2866 -5647 -5648 0
5648 -5647 -2866 -2928 0
2866 2928 -5647 5648 0
2928 -2866 5647 5648 0
2866 -2928 5647 5648 0
2990 3049 5648 -5649 0
-2990 -3049 5648 -5649 0
2990 -3049 -5648 -5649 0
3049 -2990 -5648 -5649 0
5649 -5648 -2990 -3049 0
2990 3049 -5648 5649 0
3049 -2990 5648 5649 0
2990 -3049 5648 5649 0
3114 3173 5649 -5650 0
-3114 -3173 5649 -5650 0
3114 -3173 -5649 -5650 0
3173 -3114 -5649 -5650 0
5650 -5649 -3114 -3173 0
3114 3173 -5649 5650 0
3173 -3114 5649 5650 0
3114 -3173 5649 5650 0
19 -14 -5651 0
14 -19 -5651 0
-19 -14 5651 0
14 19 5651 0
78 5360 5651 -5652 0
-78 -5360 5651 -5652 0
78 -5360 -5651 -5652 0
-78 5360 -5651 -5652 0
-78 -5360 -5651 5652 0
78 5360 -5651 5652 0
-78 5360 5651 5652 0
78 -5360 5651 5652 0
140 208 5652 -5653 0
-140 -208 5652 -5653 0
140 -208 -5652 -5653 0
208 -140 -5652 -5653 0
5653 -5652 -140 -208 0
140 208 -5652 5653 0
208 -140 5652 5653 0
140 -208 5652 5653 0
270 332 5653 -5654 0
-270 -332 5653 -5654 0
270 -332 -5653 -5654 0
332 -270 -5653 -5654 0
5654 -5653 -270 -332 0
270 332 -5653 5654 0
332 -270 5653 5654 0
270 -332 5653 5654 0
394 456 5654 -5655 0
-394 -456 5654 -5655 0
394 -456 -5654 -5655 0
456 -394 -5654 -5655 0
5655 -5654 -394 -456 0
394 456 -5654 5655 0
456 -394 5654 5655 0
394 -456 5654 5655 0
518 580 5655 -5656 0
-518 -580 5655 -5656 0
518 -580 -5655 -5656 0
580 -518 -5655 -5656 0
5656 -5655 -518 -580 0
518 580 -5655 5656 0
580 -518 5655 5656 0
518 -580 5655 5656 0
642 704 5656 -5657 0
-642 -704 5656 -5657 0
642 -704 -5656 -5657 0
704 -642 -5656 -5657 0
5657 -5656 -642 -704 0
642 704 -5656 5657 0
704 -642 5656 5657 0
642 -704 5656 5657 0
766 828 5657 -5658 0
-766 -828 5657 -5658 0
766 -828 -5657 -5658 0
828 -766 -5657 -5658 0
5658 -5657 -766 -828 0
766 828 -5657 5658 0
828 -766 5657 5658 0
766 -828 5657 5658 0
890 952 5658 -5659 0
-890 -952 5658 -5659 0
890 -952 -5658 -5659 0
952 -890 -5658 -5659 0
5659 -5658 -890 -952 0
890 952 -5658 5659 0
952 -890 5658 5659 0
890 -952 5658 5659 0
1011 1076 5659 -5660 0
-1011 -1076 5659 -5660 0
1011 -1076 -5659 -5660 0
1076 -1011 -5659 -5660 0
5660 -5659 -1011 -1076 0
1011 1076 -5659 5660 0
1076 -1011 5659 5660 0
1011 -1076 5659 5660 0
1130 1200 5660 -5661 0
-1130 -1200 5660 -5661 0
1130 -1200 -5660 -5661 0
1200 -1130 -5660 -5661 0
5661 -5660 -1130 -1200 0
1130 1200 -5660 5661 0
1200 -1130 5660 5661 0
1130 -1200 5660 5661 0
1262 1324 5661 -5662 0
-1262 -1324 5661 -5662 0
1262 -1324 -5661 -5662 0
1324 -1262 -5661 -5662 0
5662 -5661 -1262 -1324 0
1262 1324 -5661 5662 0
1324 -1262 5661 5662 0
1262 -1324 5661 5662 0
1386 1448 5662 -5663 0
-1386 -1448 5662 -5663 0
1386 -1448 -5662 -5663 0
1448 -1386 -5662 -5663 0
5663 -5662 -1386 -1448 0
1386 1448 -5662 5663 0
1448 -1386 5662 5663 0
1386 -1448 5662 5663 0
1510 1572 5663 -5664 0
-1510 -1572 5663 -5664 0
1510 -1572 -5663 -5664 0
1572 -1510 -5663 -5664 0
5664 -5663 -1510 -1572 0
1510 1572 -5663 5664 0
1572 -1510 5663 5664 0
1510 -1572 5663 5664 0
1634 1696 5664 -5665 0
-1634 -1696 5664 -5665 0
1634 -1696 -5664 -5665 0
1696 -1634 -5664 -5665 0
5665 -5664 -1634 -1696 0
1634 1696 -5664 5665 0
1696 -1634 5664 5665 0
1634 -1696 5664 5665 0
1758 1820 5665 -5666 0
-1758 -1820 5665 -5666 0
1758 -1820 -5665 -5666 0
1820 -1758 -5665 -5666 0
5666 -5665 -1758 -1820 0
1758 1820 -5665 5666 0
1820 -1758 5665 5666 0
1758 -1820 5665 5666 0
1882 1944 5666 -5667 0
-1882 -1944 5666 -5667 0
1882 -1944 -5666 -5667 0
1944 -1882 -5666 -5667 0
5667 -5666 -1882 -1944 0
1882 1944 -5666 5667 0
1944 -1882 5666 5667 0
1882 -1944 5666 5667 0
2046 2051 5667 -5668 0
-2051 -2046 5667 -5668 0
2051 -2046 -5667 -5668 0
2046 -2051 -5667 -5668 0
-2051 -2046 -5667 5668 0
2046 2051 -5667 5668 0
2046 -2051 5667 5668 0
2051 -2046 5667 5668 0
2110 5470 5668 -5669 0
-2110 5470 -5668 -5669 0
-2110 -5470 5668 -5669 0
2110 -5470 -5668 -5669 0
5669 -5470 -5668 -2110 0
2110 -5470 5668 5669 0
2110 5470 -5668 5669 0
-2110 5470 5668 5669 0
2172 2240 5669 -5670 0
-2172 -2240 5669 -5670 0
2172 -2240 -5669 -5670 0
2240 -2172 -5669 -5670 0
5670 -5669 -2172 -2240 0
2172 2240 -5669 5670 0
2240 -2172 5669 5670 0
2172 -2240 5669 5670 0
2302 2364 5670 -5671 0
-2302 -2364 5670 -5671 0
2302 -2364 -5670 -5671 0
2364 -2302 -5670 -5671 0
5671 -5670 -2302 -2364 0
2302 2364 -5670 5671 0
2364 -2302 5670 5671 0
2302 -2364 5670 5671 0
2426 2488 5671 -5672 0
-2426 -2488 5671 -5672 0
2426 -2488 -5671 -5672 0
2488 -2426 -5671 -5672 0
5672 -5671 -2426 -2488 0
2426 2488 -5671 5672 0
2488 -2426 5671 5672 0
2426 -2488 5671 5672 0
2550 2612 5672 -5673 0
-2550 -2612 5672 -5673 0
2550 -2612 -5672 -5673 0
2612 -2550 -5672 -5673 0
5673 -5672 -2550 -2612 0
2550 2612 -5672 5673 0
2612 -2550 5672 5673 0
2550 -2612 5672 5673 0
2674 2736 5673 -5674 0
-2674 -2736 5673 -5674 0
2674 -2736 -5673 -5674 0
2736 -2674 -5673 -5674 0
5674 -5673 -2674 -2736 0
2674 2736 -5673 5674 0
2736 -2674 5673 5674 0
2674 -2736 5673 5674 0
2798 2860 5674 -5675 0
-2798 -2860 5674 -5675 0
2798 -2860 -5674 -5675 0
2860 -2798 -5674 -5675 0
5675 -5674 -2798 -2860 0
2798 2860 -5674 5675 0
2860 -2798 5674 5675 0
2798 -2860 5674 5675 0
2922 2984 5675 -5676 0
-2922 -2984 5675 -5676 0
2922 -2984 -5675 -5676 0
2984 -2922 -5675 -5676 0
5676 -5675 -2922 -2984 0
2922 2984 -5675 5676 0
2984 -2922 5675 5676 0
2922 -2984 5675 5676 0
3043 3108 5676 -5677 0
-3043 -3108 5676 -5677 0
3043 -3108 -5676 -5677 0
3108 -3043 -5676 -5677 0
5677 -5676 -3043 -3108 0
3043 3108 -5676 5677 0
3108 -3043 5676 5677 0
3043 -3108 5676 5677 0
16 -81 -5678 0
81 -16 -5678 0
5678 -16 -81 0
5678 16 81 0
143 205 5678 -5679 0
-143 -205 5678 -5679 0
143 -205 -5678 -5679 0
205 -143 -5678 -5679 0
5679 -5678 -143 -205 0
143 205 -5678 5679 0
205 -143 5678 5679 0
143 -205 5678 5679 0
267 329 5679 -5680 0
-267 -329 5679 -5680 0
267 -329 -5679 -5680 0
329 -267 -5679 -5680 0
5680 -5679 -267 -329 0
267 329 -5679 5680 0
329 -267 5679 5680 0
267 -329 5679 5680 0
391 453 5680 -5681 0
-391 -453 5680 -5681 0
391 -453 -5680 -5681 0
453 -391 -5680 -5681 0
5681 -5680 -391 -453 0
391 453 -5680 5681 0
453 -391 5680 5681 0
391 -453 5680 5681 0
515 577 5681 -5682 0
-515 -577 5681 -5682 0
515 -577 -5681 -5682 0
577 -515 -5681 -5682 0
5682 -5681 -515 -577 0
515 577 -5681 5682 0
577 -515 5681 5682 0
515 -577 5681 5682 0
639 701 5682 -5683 0
-639 -701 5682 -5683 0
639 -701 -5682 -5683 0
701 -639 -5682 -5683 0
5683 -5682 -639 -701 0
639 701 -5682 5683 0
701 -639 5682 5683 0
639 -701 5682 5683 0
763 825 5683 -5684 0
-763 -825 5683 -5684 0
763 -825 -5683 -5684 0
825 -763 -5683 -5684 0
5684 -5683 -763 -825 0
763 825 -5683 5684 0
825 -763 5683 5684 0
763 -825 5683 5684 0
887 949 5684 -5685 0
-887 -949 5684 -5685 0
887 -949 -5684 -5685 0
949 -887 -5684 -5685 0
5685 -5684 -887 -949 0
887 949 -5684 5685 0
949 -887 5684 5685 0
887 -949 5684 5685 0
1006 1073 5685 -5686 0
-1006 -1073 5685 -5686 0
1006 -1073 -5685 -5686 0
1073 -1006 -5685 -5686 0
5686 -5685 -1006 -1073 0
1006 1073 -5685 5686 0
1073 -1006 5685 5686 0
1006 -1073 5685 5686 0
1135 1197 5686 -5687 0
-1135 -1197 5686 -5687 0
1135 -1197 -5686 -5687 0
1197 -1135 -5686 -5687 0
5687 -5686 -1135 -1197 0
1135 1197 -5686 5687 0
1197 -1135 5686 5687 0
1135 -1197 5686 5687 0
1259 1321 5687 -5688 0
-1259 -1321 5687 -5688 0
1259 -1321 -5687 -5688 0
1321 -1259 -5687 -5688 0
5688 -5687 -1259 -1321 0
1259 1321 -5687 5688 0
1321 -1259 5687 5688 0
1259 -1321 5687 5688 0
1383 1445 5688 -5689 0
-1383 -1445 5688 -5689 0
1383 -1445 -5688 -5689 0
1445 -1383 -5688 -5689 0
5689 -5688 -1383 -1445 0
1383 1445 -5688 5689 0
1445 -1383 5688 5689 0
1383 -1445 5688 5689 0
1507 1569 5689 -5690 0
-1507 -1569 5689 -5690 0
1507 -1569 -5689 -5690 0
1569 -1507 -5689 -5690 0
5690 -5689 -1507 -1569 0
1507 1569 -5689 5690 0
1569 -1507 5689 5690 0
1507 -1569 5689 5690 0
1631 1693 5690 -5691 0
-1631 -1693 5690 -5691 0
1631 -1693 -5690 -5691 0
1693 -1631 -5690 -5691 0
5691 -5690 -1631 -1693 0
1631 1693 -5690 5691 0
1693 -1631 5690 5691 0
1631 -1693 5690 5691 0
1755 1817 5691 -5692 0
-1755 -1817 5691 -5692 0
1755 -1817 -5691 -5692 0
1817 -1755 -5691 -5692 0
5692 -5691 -1755 -1817 0
1755 1817 -5691 5692 0
1817 -1755 5691 5692 0
1755 -1817 5691 5692 0
1879 1941 5692 -5693 0
-1879 -1941 5692 -5693 0
1879 -1941 -5692 -5693 0
1941 -1879 -5692 -5693 0
5693 -5692 -1879 -1941 0
1879 1941 -5692 5693 0
1941 -1879 5692 5693 0
1879 -1941 5692 5693 0
2048 2113 5693 -5694 0
-2048 -2113 5693 -5694 0
2048 -2113 -5693 -5694 0
2113 -2048 -5693 -5694 0
5694 -5693 -2048 -2113 0
2048 2113 -5693 5694 0
2113 -2048 5693 5694 0
2048 -2113 5693 5694 0
2175 2237 5694 -5695 0
-2175 -2237 5694 -5695 0
2175 -2237 -5694 -5695 0
2237 -2175 -5694 -5695 0
5695 -5694 -2175 -2237 0
2175 2237 -5694 5695 0
2237 -2175 5694 5695 0
2175 -2237 5694 5695 0
2299 2361 5695 -5696 0
-2299 -2361 5695 -5696 0
2299 -2361 -5695 -5696 0
2361 -2299 -5695 -5696 0
5696 -5695 -2299 -2361 0
2299 2361 -5695 5696 0
2361 -2299 5695 5696 0
2299 -2361 5695 5696 0
2423 2485 5696 -5697 0
-2423 -2485 5696 -5697 0
2423 -2485 -5696 -5697 0
2485 -2423 -5696 -5697 0
5697 -5696 -2423 -2485 0
2423 2485 -5696 5697 0
2485 -2423 5696 5697 0
2423 -2485 5696 5697 0
2547 2609 5697 -5698 0
-2547 -2609 5697 -5698 0
2547 -2609 -5697 -5698 0
2609 -2547 -5697 -5698 0
5698 -5697 -2547 -2609 0
2547 2609 -5697 5698 0
2609 -2547 5697 5698 0
2547 -2609 5697 5698 0
2671 2733 5698 -5699 0
-2671 -2733 5698 -5699 0
2671 -2733 -5698 -5699 0
2733 -2671 -5698 -5699 0
5699 -5698 -2671 -2733 0
2671 2733 -5698 5699 0
2733 -2671 5698 5699 0
2671 -2733 5698 5699 0
2795 2857 5699 -5700 0
-2795 -2857 5699 -5700 0
2795 -2857 -5699 -5700 0
2857 -2795 -5699 -5700 0
5700 -5699 -2795 -2857 0
2795 2857 -5699 5700 0
2857 -2795 5699 5700 0
2795 -2857 5699 5700 0
2919 2981 5700 -5701 0
-2919 -2981 5700 -5701 0
2919 -2981 -5700 -5701 0
2981 -2919 -5700 -5701 0
5701 -5700 -2919 -2981 0
2919 2981 -5700 5701 0
2981 -2919 5700 5701 0
2919 -2981 5700 5701 0
2037 -2084 -5702 0
2084 -2037 -5702 0
-2037 -2084 5702 0
2037 2084 5702 0
2146 2208 5702 -5703 0
-2146 -2208 5702 -5703 0
2146 -2208 -5702 -5703 0
2208 -2146 -5702 -5703 0
5703 -5702 -2146 -2208 0
2146 2208 -5702 5703 0
2208 -2146 5702 5703 0
2146 -2208 5702 5703 0
2273 2332 5703 -5704 0
-2273 -2332 5703 -5704 0
2273 -2332 -5703 -5704 0
2332 -2273 -5703 -5704 0
5704 -5703 -2273 -2332 0
2273 2332 -5703 5704 0
2332 -2273 5703 5704 0
2273 -2332 5703 5704 0
2394 2459 5704 -5705 0
-2394 -2459 5704 -5705 0
2394 -2459 -5704 -5705 0
2459 -2394 -5704 -5705 0
5705 -5704 -2394 -2459 0
2394 2459 -5704 5705 0
2459 -2394 5704 5705 0
2394 -2459 5704 5705 0
2518 2580 5705 -5706 0
-2518 -2580 5705 -5706 0
2518 -2580 -5705 -5706 0
2580 -2518 -5705 -5706 0
5706 -5705 -2518 -2580 0
2518 2580 -5705 5706 0
2580 -2518 5705 5706 0
2518 -2580 5705 5706 0
2645 2704 5706 -5707 0
-2645 -2704 5706 -5707 0
2645 -2704 -5706 -5707 0
2704 -2645 -5706 -5707 0
-2645 -2704 -5706 5707 0
2645 2704 -5706 5707 0
2704 -2645 5706 5707 0
2645 -2704 5706 5707 0
2766 2831 5707 -5708 0
-2766 -2831 5707 -5708 0
2766 -2831 -5707 -5708 0
2831 -2766 -5707 -5708 0
5708 -5707 -2766 -2831 0
2766 2831 -5707 5708 0
2831 -2766 5707 5708 0
2766 -2831 5707 5708 0
2890 2952 5708 -5709 0
-2890 -2952 5708 -5709 0
2890 -2952 -5708 -5709 0
2952 -2890 -5708 -5709 0
5709 -5708 -2890 -2952 0
2890 2952 -5708 5709 0
2952 -2890 5708 5709 0
2890 -2952 5708 5709 0
3014 5701 5709 -5710 0
-3014 -5701 5709 -5710 0
3014 -5701 -5709 -5710 0
-3014 5701 -5709 -5710 0
-3014 -5701 -5709 5710 0
3014 5701 -5709 5710 0
-3014 5701 5709 5710 0
3014 -5701 5709 5710 0
3040 5621 5710 -5711 0
-3040 5621 -5710 -5711 0
-3040 -5621 5710 -5711 0
3040 -5621 -5710 -5711 0
5711 -5621 -5710 -3040 0
3040 -5621 5710 5711 0
3040 5621 -5710 5711 0
-3040 5621 5710 5711 0
3102 5677 5711 -5712 0
-3102 -5677 5711 -5712 0
3102 -5677 -5711 -5712 0
-3102 5677 -5711 -5712 0
-3102 -5677 -5711 5712 0
3102 5677 -5711 5712 0
-3102 5677 5711 5712 0
3102 -5677 5711 5712 0
3164 5650 5712 -5713 0
-3164 -5650 5712 -5713 0
3164 -5650 -5712 -5713 0
-3164 5650 -5712 -5713 0
-3164 -5650 -5712 5713 0
3164 5650 -5712 5713 0
-3164 5650 5712 5713 0
3164 -5650 5712 5713 0
3226 5623 5713 -5714 0
-3226 -5623 5713 -5714 0
3226 -5623 -5713 -5714 0
-3226 5623 -5713 -5714 0
-3226 -5623 -5713 5714 0
3226 5623 -5713 5714 0
-3226 5623 5713 5714 0
3226 -5623 5713 5714 0
3288 5612 5714 -5715 0
-3288 -5612 5714 -5715 0
3288 -5612 -5714 -5715 0
-3288 5612 -5714 -5715 0
-3288 -5612 -5714 5715 0
3288 5612 -5714 5715 0
-3288 5612 5714 5715 0
3288 -5612 5714 5715 0
3350 3451 5715 -5716 0
-3350 -3451 5715 -5716 0
3350 -3451 -5715 -5716 0
3451 -3350 -5715 -5716 0
5716 -5715 -3350 -3451 0
3350 3451 -5715 5716 0
3451 -3350 5715 5716 0
3350 -3451 5715 5716 0
3513 3575 5716 -5717 0
-3513 -3575 5716 -5717 0
3513 -3575 -5716 -5717 0
3575 -3513 -5716 -5717 0
5717 -5716 -3513 -3575 0
3513 3575 -5716 5717 0
3575 -3513 5716 5717 0
3513 -3575 5716 5717 0
3637 3699 5717 -5718 0
-3637 -3699 5717 -5718 0
3637 -3699 -5717 -5718 0
3699 -3637 -5717 -5718 0
5718 -5717 -3637 -3699 0
3637 3699 -5717 5718 0
3699 -3637 5717 5718 0
3637 -3699 5717 5718 0
3764 3823 5718 -5719 0
-3764 -3823 5718 -5719 0
3764 -3823 -5718 -5719 0
3823 -3764 -5718 -5719 0
5719 -5718 -3764 -3823 0
3764 3823 -5718 5719 0
3823 -3764 5718 5719 0
3764 -3823 5718 5719 0
3885 3950 5719 -5720 0
-3885 -3950 5719 -5720 0
3885 -3950 -5719 -5720 0
3950 -3885 -5719 -5720 0
5720 -5719 -3885 -3950 0
3885 3950 -5719 5720 0
3950 -3885 5719 5720 0
3885 -3950 5719 5720 0
9 -64 -5721 0
64 -9 -5721 0
-9 -64 5721 0
9 64 5721 0
126 188 5721 -5722 0
-126 -188 5721 -5722 0
126 -188 -5721 -5722 0
188 -126 -5721 -5722 0
5722 -5721 -126 -188 0
126 188 -5721 5722 0
188 -126 5721 5722 0
126 -188 5721 5722 0
253 312 5722 -5723 0
-253 -312 5722 -5723 0
253 -312 -5722 -5723 0
312 -253 -5722 -5723 0
5723 -5722 -253 -312 0
253 312 -5722 5723 0
312 -253 5722 5723 0
253 -312 5722 5723 0
374 439 5723 -5724 0
-374 -439 5723 -5724 0
374 -439 -5723 -5724 0
439 -374 -5723 -5724 0
5724 -5723 -374 -439 0
374 439 -5723 5724 0
439 -374 5723 5724 0
374 -439 5723 5724 0
498 560 5724 -5725 0
-498 -560 5724 -5725 0
498 -560 -5724 -5725 0
560 -498 -5724 -5725 0
5725 -5724 -498 -560 0
498 560 -5724 5725 0
560 -498 5724 5725 0
498 -560 5724 5725 0
625 684 5725 -5726 0
-625 -684 5725 -5726 0
625 -684 -5725 -5726 0
684 -625 -5725 -5726 0
-625 -684 -5725 5726 0
625 684 -5725 5726 0
684 -625 5725 5726 0
625 -684 5725 5726 0
746 811 5726 -5727 0
-746 -811 5726 -5727 0
746 -811 -5726 -5727 0
811 -746 -5726 -5727 0
5727 -5726 -746 -811 0
746 811 -5726 5727 0
811 -746 5726 5727 0
746 -811 5726 5727 0
870 932 5727 -5728 0
-870 -932 5727 -5728 0
870 -932 -5727 -5728 0
932 -870 -5727 -5728 0
5728 -5727 -870 -932 0
870 932 -5727 5728 0
932 -870 5727 5728 0
870 -932 5727 5728 0
994 1056 5728 -5729 0
-994 -1056 5728 -5729 0
994 -1056 -5728 -5729 0
1056 -994 -5728 -5729 0
5729 -5728 -994 -1056 0
994 1056 -5728 5729 0
1056 -994 5728 5729 0
994 -1056 5728 5729 0
-1068 5729 -5730 0
1068 -5729 -5730 0
5730 -5729 -1068 0
1068 5729 5730 0
1180 1242 5730 -5731 0
-1180 -1242 5730 -5731 0
1180 -1242 -5730 -5731 0
1242 -1180 -5730 -5731 0
5731 -5730 -1180 -1242 0
1180 1242 -5730 5731 0
1242 -1180 5730 5731 0
1180 -1242 5730 5731 0
5 52 114 -5732 0
5 -52 -114 -5732 0
52 -5 -114 -5732 0
114 -5 -52 -5732 0
-5 -52 -114 5732 0
52 114 -5 5732 0
5 114 -52 5732 0
5 52 -114 5732 0
176 241 5732 -5733 0
-176 -241 5732 -5733 0
176 -241 -5732 -5733 0
241 -176 -5732 -5733 0
5733 -5732 -176 -241 0
176 241 -5732 5733 0
241 -176 5732 5733 0
176 -241 5732 5733 0
300 362 5733 -5734 0
-300 -362 5733 -5734 0
300 -362 -5733 -5734 0
362 -300 -5733 -5734 0
5734 -5733 -300 -362 0
300 362 -5733 5734 0
362 -300 5733 5734 0
300 -362 5733 5734 0
427 486 5734 -5735 0
-427 -486 5734 -5735 0
427 -486 -5734 -5735 0
486 -427 -5734 -5735 0
5735 -5734 -427 -486 0
427 486 -5734 5735 0
486 -427 5734 5735 0
427 -486 5734 5735 0
548 613 5735 -5736 0
-548 -613 5735 -5736 0
548 -613 -5735 -5736 0
613 -548 -5735 -5736 0
5736 -5735 -548 -613 0
548 613 -5735 5736 0
613 -548 5735 5736 0
548 -613 5735 5736 0
672 734 5736 -5737 0
-672 -734 5736 -5737 0
672 -734 -5736 -5737 0
734 -672 -5736 -5737 0
5737 -5736 -672 -734 0
672 734 -5736 5737 0
734 -672 5736 5737 0
672 -734 5736 5737 0
799 858 5737 -5738 0
-799 -858 5737 -5738 0
799 -858 -5737 -5738 0
858 -799 -5737 -5738 0
5738 -5737 -799 -858 0
799 858 -5737 5738 0
858 -799 5737 5738 0
799 -858 5737 5738 0
920 982 5738 -5739 0
-920 -982 5738 -5739 0
920 -982 -5738 -5739 0
982 -920 -5738 -5739 0
5739 -5738 -920 -982 0
920 982 -5738 5739 0
982 -920 5738 5739 0
920 -982 5738 5739 0
1008 5685 5739 -5740 0
-1008 -5685 5739 -5740 0
-1008 5685 -5739 -5740 0
1008 -5685 -5739 -5740 0
-1008 -5685 -5739 5740 0
1008 5685 -5739 5740 0
1008 -5685 5739 5740 0
-1008 5685 5739 5740 0
1070 5729 5740 -5741 0
-1070 5729 -5740 -5741 0
-1070 -5729 5740 -5741 0
1070 -5729 -5740 -5741 0
5741 -5729 -5740 -1070 0
1070 -5729 5740 5741 0
1070 5729 -5740 5741 0
-1070 5729 5740 5741 0
1132 5660 5741 -5742 0
-1132 -5660 5741 -5742 0
-1132 5660 -5741 -5742 0
1132 -5660 -5741 -5742 0
-1132 -5660 -5741 5742 0
1132 5660 -5741 5742 0
1132 -5660 5741 5742 0
-1132 5660 5741 5742 0
1194 5633 5742 -5743 0
-1194 -5633 5742 -5743 0
-1194 5633 -5742 -5743 0
1194 -5633 -5742 -5743 0
-1194 -5633 -5742 5743 0
1194 5633 -5742 5743 0
1194 -5633 5742 5743 0
-1194 5633 5742 5743 0
1256 5731 5743 -5744 0
-1256 -5731 5743 -5744 0
-1256 5731 -5743 -5744 0
1256 -5731 -5743 -5744 0
-1256 -5731 -5743 5744 0
1256 5731 -5743 5744 0
1256 -5731 5743 5744 0
-1256 5731 5743 5744 0
1318 5594 5744 -5745 0
-1318 -5594 5744 -5745 0
-1318 5594 -5744 -5745 0
1318 -5594 -5744 -5745 0
-1318 -5594 -5744 5745 0
1318 5594 -5744 5745 0
1318 -5594 5744 5745 0
-1318 5594 5744 5745 0
1419 1481 5745 -5746 0
-1419 -1481 5745 -5746 0
1419 -1481 -5745 -5746 0
1481 -1419 -5745 -5746 0
5746 -5745 -1419 -1481 0
1419 1481 -5745 5746 0
1481 -1419 5745 5746 0
1419 -1481 5745 5746 0
1543 1605 5746 -5747 0
-1543 -1605 5746 -5747 0
1543 -1605 -5746 -5747 0
1605 -1543 -5746 -5747 0
5747 -5746 -1543 -1605 0
1543 1605 -5746 5747 0
1605 -1543 5746 5747 0
1543 -1605 5746 5747 0
1667 1732 5747 -5748 0
-1667 -1732 5747 -5748 0
1667 -1732 -5747 -5748 0
1732 -1667 -5747 -5748 0
5748 -5747 -1667 -1732 0
1667 1732 -5747 5748 0
1732 -1667 5747 5748 0
1667 -1732 5747 5748 0
1791 1853 5748 -5749 0
-1791 -1853 5748 -5749 0
1791 -1853 -5748 -5749 0
1853 -1791 -5748 -5749 0
5749 -5748 -1791 -1853 0
1791 1853 -5748 5749 0
1853 -1791 5748 5749 0
1791 -1853 5748 5749 0
1918 1977 5749 -5750 0
-1918 -1977 5749 -5750 0
1918 -1977 -5749 -5750 0
1977 -1918 -5749 -5750 0
5750 -5749 -1918 -1977 0
1918 1977 -5749 5750 0
1977 -1918 5749 5750 0
1918 -1977 5749 5750 0
4009 5720 5750 0
5750 -5720 -4009 0
-4009 5720 -5750 0
4009 -5720 -5750 0
56 -118 -5751 0
118 -56 -5751 0
5751 -56 -118 0
5751 56 118 0
180 245 5751 -5752 0
-180 -245 5751 -5752 0
180 -245 -5751 -5752 0
245 -180 -5751 -5752 0
5752 -5751 -180 -245 0
180 245 -5751 5752 0
245 -180 5751 5752 0
180 -245 5751 5752 0
304 366 5752 -5753 0
-304 -366 5752 -5753 0
304 -366 -5752 -5753 0
366 -304 -5752 -5753 0
5753 -5752 -304 -366 0
304 366 -5752 5753 0
366 -304 5752 5753 0
304 -366 5752 5753 0
431 490 5753 -5754 0
-431 -490 5753 -5754 0
431 -490 -5753 -5754 0
490 -431 -5753 -5754 0
5754 -5753 -431 -490 0
431 490 -5753 5754 0
490 -431 5753 5754 0
431 -490 5753 5754 0
552 617 5754 -5755 0
-552 -617 5754 -5755 0
552 -617 -5754 -5755 0
617 -552 -5754 -5755 0
5755 -5754 -552 -617 0
552 617 -5754 5755 0
617 -552 5754 5755 0
552 -617 5754 5755 0
676 738 5755 -5756 0
-676 -738 5755 -5756 0
676 -738 -5755 -5756 0
738 -676 -5755 -5756 0
5756 -5755 -676 -738 0
676 738 -5755 5756 0
738 -676 5755 5756 0
676 -738 5755 5756 0
803 862 5756 -5757 0
-803 -862 5756 -5757 0
803 -862 -5756 -5757 0
862 -803 -5756 -5757 0
5757 -5756 -803 -862 0
803 862 -5756 5757 0
862 -803 5756 5757 0
803 -862 5756 5757 0
924 986 5757 -5758 0
-924 -986 5757 -5758 0
924 -986 -5757 -5758 0
986 -924 -5757 -5758 0
5758 -5757 -924 -986 0
924 986 -5757 5758 0
986 -924 5757 5758 0
924 -986 5757 5758 0
1048 1113 5758 -5759 0
-1048 -1113 5758 -5759 0
1048 -1113 -5758 -5759 0
1113 -1048 -5758 -5759 0
5759 -5758 -1048 -1113 0
1048 1113 -5758 5759 0
1113 -1048 5758 5759 0
1048 -1113 5758 5759 0
1172 1234 5759 -5760 0
-1172 -1234 5759 -5760 0
1172 -1234 -5759 -5760 0
1234 -1172 -5759 -5760 0
5760 -5759 -1172 -1234 0
1172 1234 -5759 5760 0
1234 -1172 5759 5760 0
1172 -1234 5759 5760 0
1299 1358 5760 -5761 0
-1299 -1358 5760 -5761 0
1299 -1358 -5760 -5761 0
1358 -1299 -5760 -5761 0
5761 -5760 -1299 -1358 0
1299 1358 -5760 5761 0
1358 -1299 5760 5761 0
1299 -1358 5760 5761 0
-1381 5761 -5762 0
1381 -5761 -5762 0
5762 -5761 -1381 0
1381 5761 5762 0
32 94 156 -5763 0
32 -94 -156 -5763 0
94 -32 -156 -5763 0
156 -32 -94 -5763 0
5763 -32 -94 -156 0
94 156 -32 5763 0
32 156 -94 5763 0
5763 32 94 -156 0
221 280 5763 -5764 0
-221 -280 5763 -5764 0
221 -280 -5763 -5764 0
280 -221 -5763 -5764 0
5764 -5763 -221 -280 0
221 280 -5763 5764 0
280 -221 5763 5764 0
221 -280 5763 5764 0
342 407 5764 -5765 0
-342 -407 5764 -5765 0
342 -407 -5764 -5765 0
407 -342 -5764 -5765 0
5765 -5764 -342 -407 0
342 407 -5764 5765 0
407 -342 5764 5765 0
342 -407 5764 5765 0
451 528 5765 -5766 0
-451 -528 5765 -5766 0
451 -528 -5765 -5766 0
528 -451 -5765 -5766 0
5766 -5765 -451 -528 0
451 528 -5765 5766 0
528 -451 5765 5766 0
451 -528 5765 5766 0
593 652 5766 -5767 0
-593 -652 5766 -5767 0
593 -652 -5766 -5767 0
652 -593 -5766 -5767 0
-593 -652 -5766 5767 0
593 652 -5766 5767 0
652 -593 5766 5767 0
593 -652 5766 5767 0
717 779 5767 -5768 0
-717 -779 5767 -5768 0
717 -779 -5767 -5768 0
779 -717 -5767 -5768 0
5768 -5767 -717 -779 0
717 779 -5767 5768 0
779 -717 5767 5768 0
717 -779 5767 5768 0
841 903 5768 -5769 0
-841 -903 5768 -5769 0
841 -903 -5768 -5769 0
903 -841 -5768 -5769 0
5769 -5768 -841 -903 0
841 903 -5768 5769 0
903 -841 5768 5769 0
841 -903 5768 5769 0
965 1024 5769 -5770 0
-965 -1024 5769 -5770 0
965 -1024 -5769 -5770 0
1024 -965 -5769 -5770 0
5770 -5769 -965 -1024 0
965 1024 -5769 5770 0
1024 -965 5769 5770 0
965 -1024 5769 5770 0
1089 1148 5770 -5771 0
-1089 -1148 5770 -5771 0
1089 -1148 -5770 -5771 0
1148 -1089 -5770 -5771 0
5771 -5770 -1089 -1148 0
1089 1148 -5770 5771 0
1148 -1089 5770 5771 0
1089 -1148 5770 5771 0
1210 1275 5771 -5772 0
-1210 -1275 5771 -5772 0
1210 -1275 -5771 -5772 0
1275 -1210 -5771 -5772 0
5772 -5771 -1210 -1275 0
1210 1275 -5771 5772 0
1275 -1210 5771 5772 0
1210 -1275 5771 5772 0
1334 1396 5772 -5773 0
-1334 -1396 5772 -5773 0
1334 -1396 -5772 -5773 0
1396 -1334 -5772 -5773 0
5773 -5772 -1334 -1396 0
1334 1396 -5772 5773 0
1396 -1334 5772 5773 0
1334 -1396 5772 5773 0
1441 5762 5773 -5774 0
-1441 -5762 5773 -5774 0
-1441 5762 -5773 -5774 0
1441 -5762 -5773 -5774 0
-1441 -5762 -5773 5774 0
1441 5762 -5773 5774 0
1441 -5762 5773 5774 0
-1441 5762 5773 5774 0
1520 1585 5774 -5775 0
-1520 -1585 5774 -5775 0
1520 -1585 -5774 -5775 0
1585 -1520 -5774 -5775 0
5775 -5774 -1520 -1585 0
1520 1585 -5774 5775 0
1585 -1520 5774 5775 0
1520 -1585 5774 5775 0
1644 1709 5775 -5776 0
-1644 -1709 5775 -5776 0
1644 -1709 -5775 -5776 0
1709 -1644 -5775 -5776 0
5776 -5775 -1644 -1709 0
1644 1709 -5775 5776 0
1709 -1644 5775 5776 0
1644 -1709 5775 5776 0
1751 5340 5776 -5777 0
-1751 -5340 5776 -5777 0
-1751 5340 -5776 -5777 0
1751 -5340 -5776 -5777 0
-1751 -5340 -5776 5777 0
1751 5340 -5776 5777 0
1751 -5340 5776 5777 0
-1751 5340 5776 5777 0
1833 1895 5777 -5778 0
-1833 -1895 5777 -5778 0
1833 -1895 -5777 -5778 0
1895 -1833 -5777 -5778 0
5778 -5777 -1833 -1895 0
1833 1895 -5777 5778 0
1895 -1833 5777 5778 0
1833 -1895 5777 5778 0
1957 2064 5778 -5779 0
-1957 -2064 5778 -5779 0
1957 -2064 -5778 -5779 0
2064 -1957 -5778 -5779 0
5779 -5778 -1957 -2064 0
1957 2064 -5778 5779 0
2064 -1957 5778 5779 0
1957 -2064 5778 5779 0
2126 2188 5779 -5780 0
-2126 -2188 5779 -5780 0
2126 -2188 -5779 -5780 0
2188 -2126 -5779 -5780 0
5780 -5779 -2126 -2188 0
2126 2188 -5779 5780 0
2188 -2126 5779 5780 0
2126 -2188 5779 5780 0
2253 2312 5780 -5781 0
-2253 -2312 5780 -5781 0
2253 -2312 -5780 -5781 0
2312 -2253 -5780 -5781 0
5781 -5780 -2253 -2312 0
2253 2312 -5780 5781 0
2312 -2253 5780 5781 0
2253 -2312 5780 5781 0
2374 2439 5781 -5782 0
-2374 -2439 5781 -5782 0
2374 -2439 -5781 -5782 0
2439 -2374 -5781 -5782 0
5782 -5781 -2374 -2439 0
2374 2439 -5781 5782 0
2439 -2374 5781 5782 0
2374 -2439 5781 5782 0
2043 -2103 -5783 0
2103 -2043 -5783 0
-2043 -2103 5783 0
2043 2103 5783 0
2165 2227 5783 -5784 0
-2165 -2227 5783 -5784 0
2165 -2227 -5783 -5784 0
2227 -2165 -5783 -5784 0
5784 -5783 -2165 -2227 0
2165 2227 -5783 5784 0
2227 -2165 5783 5784 0
2165 -2227 5783 5784 0
-2235 5784 -5785 0
2235 -5784 -5785 0
5785 -5784 -2235 0
2235 5784 5785 0
2351 2413 5785 -5786 0
-2351 -2413 5785 -5786 0
2351 -2413 -5785 -5786 0
2413 -2351 -5785 -5786 0
5786 -5785 -2351 -2413 0
2351 2413 -5785 5786 0
2413 -2351 5785 5786 0
2351 -2413 5785 5786 0
23 -85 -5787 0
85 -23 -5787 0
5787 -23 -85 0
5787 23 85 0
147 212 5787 -5788 0
-147 -212 5787 -5788 0
147 -212 -5787 -5788 0
212 -147 -5787 -5788 0
5788 -5787 -147 -212 0
147 212 -5787 5788 0
212 -147 5787 5788 0
147 -212 5787 5788 0
-265 5788 -5789 0
265 -5788 -5789 0
5789 -5788 -265 0
265 5788 5789 0
336 398 5789 -5790 0
-336 -398 5789 -5790 0
336 -398 -5789 -5790 0
398 -336 -5789 -5790 0
5790 -5789 -336 -398 0
336 398 -5789 5790 0
398 -336 5789 5790 0
336 -398 5789 5790 0
460 522 5790 -5791 0
-460 -522 5790 -5791 0
460 -522 -5790 -5791 0
522 -460 -5790 -5791 0
5791 -5790 -460 -522 0
460 522 -5790 5791 0
522 -460 5790 5791 0
460 -522 5790 5791 0
584 646 5791 -5792 0
-584 -646 5791 -5792 0
584 -646 -5791 -5792 0
646 -584 -5791 -5792 0
-584 -646 -5791 5792 0
584 646 -5791 5792 0
646 -584 5791 5792 0
584 -646 5791 5792 0
708 770 5792 -5793 0
-708 -770 5792 -5793 0
708 -770 -5792 -5793 0
770 -708 -5792 -5793 0
5793 -5792 -708 -770 0
708 770 -5792 5793 0
770 -708 5792 5793 0
708 -770 5792 5793 0
832 894 5793 -5794 0
-832 -894 5793 -5794 0
832 -894 -5793 -5794 0
894 -832 -5793 -5794 0
5794 -5793 -832 -894 0
832 894 -5793 5794 0
894 -832 5793 5794 0
832 -894 5793 5794 0
956 1015 5794 -5795 0
-956 -1015 5794 -5795 0
956 -1015 -5794 -5795 0
1015 -956 -5794 -5795 0
5795 -5794 -956 -1015 0
956 1015 -5794 5795 0
1015 -956 5794 5795 0
956 -1015 5794 5795 0
1080 1139 5795 -5796 0
-1080 -1139 5795 -5796 0
1080 -1139 -5795 -5796 0
1139 -1080 -5795 -5796 0
5796 -5795 -1080 -1139 0
1080 1139 -5795 5796 0
1139 -1080 5795 5796 0
1080 -1139 5795 5796 0
1204 1266 5796 -5797 0
-1204 -1266 5796 -5797 0
1204 -1266 -5796 -5797 0
1266 -1204 -5796 -5797 0
5797 -5796 -1204 -1266 0
1204 1266 -5796 5797 0
1266 -1204 5796 5797 0
1204 -1266 5796 5797 0
1328 5761 5797 -5798 0
-1328 5761 -5797 -5798 0
-1328 -5761 5797 -5798 0
1328 -5761 -5797 -5798 0
5798 -5761 -5797 -1328 0
1328 -5761 5797 5798 0
1328 5761 -5797 5798 0
-1328 5761 5797 5798 0
1379 1452 5798 -5799 0
-1379 -1452 5798 -5799 0
1379 -1452 -5798 -5799 0
1452 -1379 -5798 -5799 0
5799 -5798 -1379 -1452 0
1379 1452 -5798 5799 0
1452 -1379 5798 5799 0
1379 -1452 5798 5799 0
1514 1576 5799 -5800 0
-1514 -1576 5799 -5800 0
1514 -1576 -5799 -5800 0
1576 -1514 -5799 -5800 0
5800 -5799 -1514 -1576 0
1514 1576 -5799 5800 0
1576 -1514 5799 5800 0
1514 -1576 5799 5800 0
1638 1700 5800 -5801 0
-1638 -1700 5800 -5801 0
1638 -1700 -5800 -5801 0
1700 -1638 -5800 -5801 0
5801 -5800 -1638 -1700 0
1638 1700 -5800 5801 0
1700 -1638 5800 5801 0
1638 -1700 5800 5801 0
1762 1824 5801 -5802 0
-1762 -1824 5801 -5802 0
1762 -1824 -5801 -5802 0
1824 -1762 -5801 -5802 0
5802 -5801 -1762 -1824 0
1762 1824 -5801 5802 0
1824 -1762 5801 5802 0
1762 -1824 5801 5802 0
1886 1948 5802 -5803 0
-1886 -1948 5802 -5803 0
1886 -1948 -5802 -5803 0
1948 -1886 -5802 -5803 0
5803 -5802 -1886 -1948 0
1886 1948 -5802 5803 0
1948 -1886 5802 5803 0
1886 -1948 5802 5803 0
2055 2117 5803 -5804 0
-2055 -2117 5803 -5804 0
2055 -2117 -5803 -5804 0
2117 -2055 -5803 -5804 0
5804 -5803 -2055 -2117 0
2055 2117 -5803 5804 0
2117 -2055 5803 5804 0
2055 -2117 5803 5804 0
2179 2244 5804 -5805 0
-2179 -2244 5804 -5805 0
2179 -2244 -5804 -5805 0
2244 -2179 -5804 -5805 0
5805 -5804 -2179 -2244 0
2179 2244 -5804 5805 0
2244 -2179 5804 5805 0
2179 -2244 5804 5805 0
-2111 5533 -5806 0
2111 -5533 -5806 0
5806 -5533 -2111 0
2111 5533 5806 0
2034 -2076 -5807 0
2076 -2034 -5807 0
-2034 -2076 5807 0
2034 2076 5807 0
2138 5806 5807 -5808 0
-2138 -5806 5807 -5808 0
2138 -5806 -5807 -5808 0
-2138 5806 -5807 -5808 0
-2138 -5806 -5807 5808 0
2138 5806 -5807 5808 0
-2138 5806 5807 5808 0
2138 -5806 5807 5808 0
2171 5784 5808 -5809 0
-2171 5784 -5808 -5809 0
-2171 -5784 5808 -5809 0
2171 -5784 -5808 -5809 0
5809 -5784 -5808 -2171 0
2171 -5784 5808 5809 0
2171 5784 -5808 5809 0
-2171 5784 5808 5809 0
2233 5805 5809 -5810 0
-2233 -5805 5809 -5810 0
2233 -5805 -5809 -5810 0
-2233 5805 -5809 -5810 0
-2233 -5805 -5809 5810 0
2233 5805 -5809 5810 0
-2233 5805 5809 5810 0
2233 -5805 5809 5810 0
-1257 5308 -5811 0
1257 -5308 -5811 0
5811 -5308 -1257 0
1257 5308 5811 0
29 91 153 -5812 0
29 -91 -153 -5812 0
91 -29 -153 -5812 0
153 -29 -91 -5812 0
5812 -29 -91 -153 0
91 153 -29 5812 0
29 153 -91 5812 0
5812 29 91 -153 0
218 277 5812 -5813 0
-218 -277 5812 -5813 0
218 -277 -5812 -5813 0
277 -218 -5812 -5813 0
5813 -5812 -218 -277 0
218 277 -5812 5813 0
277 -218 5812 5813 0
218 -277 5812 5813 0
-327 5813 -5814 0
327 -5813 -5814 0
5814 -5813 -327 0
327 5813 5814 0
404 466 5814 -5815 0
-404 -466 5814 -5815 0
404 -466 -5814 -5815 0
466 -404 -5814 -5815 0
5815 -5814 -404 -466 0
404 466 -5814 5815 0
466 -404 5814 5815 0
404 -466 5814 5815 0
525 590 5815 -5816 0
-525 -590 5815 -5816 0
525 -590 -5815 -5816 0
590 -525 -5815 -5816 0
5816 -5815 -525 -590 0
525 590 -5815 5816 0
590 -525 5815 5816 0
525 -590 5815 5816 0
-637 5816 -5817 0
637 -5816 -5817 0
5817 -5816 -637 0
637 5816 5817 0
714 776 5817 -5818 0
-714 -776 5817 -5818 0
714 -776 -5817 -5818 0
776 -714 -5817 -5818 0
5818 -5817 -714 -776 0
714 776 -5817 5818 0
776 -714 5817 5818 0
714 -776 5817 5818 0
838 900 5818 -5819 0
-838 -900 5818 -5819 0
838 -900 -5818 -5819 0
900 -838 -5818 -5819 0
5819 -5818 -838 -900 0
838 900 -5818 5819 0
900 -838 5818 5819 0
838 -900 5818 5819 0
962 1021 5819 -5820 0
-962 -1021 5819 -5820 0
962 -1021 -5819 -5820 0
1021 -962 -5819 -5820 0
5820 -5819 -962 -1021 0
962 1021 -5819 5820 0
1021 -962 5819 5820 0
962 -1021 5819 5820 0
1086 1145 5820 -5821 0
-1086 -1145 5820 -5821 0
1086 -1145 -5820 -5821 0
1145 -1086 -5820 -5821 0
5821 -5820 -1086 -1145 0
1086 1145 -5820 5821 0
1145 -1086 5820 5821 0
1086 -1145 5820 5821 0
1207 1272 5821 -5822 0
-1207 -1272 5821 -5822 0
1207 -1272 -5821 -5822 0
1272 -1207 -5821 -5822 0
5822 -5821 -1207 -1272 0
1207 1272 -5821 5822 0
1272 -1207 5821 5822 0
1207 -1272 5821 5822 0
1317 5811 5822 -5823 0
-1317 -5811 5822 -5823 0
-1317 5811 -5822 -5823 0
1317 -5811 -5822 -5823 0
-1317 -5811 -5822 5823 0
1317 5811 -5822 5823 0
1317 -5811 5822 5823 0
-1317 5811 5822 5823 0
1393 1458 5823 -5824 0
-1393 -1458 5823 -5824 0
1393 -1458 -5823 -5824 0
1458 -1393 -5823 -5824 0
5824 -5823 -1393 -1458 0
1393 1458 -5823 5824 0
1458 -1393 5823 5824 0
1393 -1458 5823 5824 0
1517 1582 5824 -5825 0
-1517 -1582 5824 -5825 0
1517 -1582 -5824 -5825 0
1582 -1517 -5824 -5825 0
5825 -5824 -1517 -1582 0
1517 1582 -5824 5825 0
1582 -1517 5824 5825 0
1517 -1582 5824 5825 0
1627 5338 5825 -5826 0
-1627 -5338 5825 -5826 0
-1627 5338 -5825 -5826 0
1627 -5338 -5825 -5826 0
-1627 -5338 -5825 5826 0
1627 5338 -5825 5826 0
1627 -5338 5825 5826 0
-1627 5338 5825 5826 0
1706 1768 5826 -5827 0
-1706 -1768 5826 -5827 0
1706 -1768 -5826 -5827 0
1768 -1706 -5826 -5827 0
5827 -5826 -1706 -1768 0
1706 1768 -5826 5827 0
1768 -1706 5826 5827 0
1706 -1768 5826 5827 0
1830 1892 5827 -5828 0
-1830 -1892 5827 -5828 0
1830 -1892 -5827 -5828 0
1892 -1830 -5827 -5828 0
5828 -5827 -1830 -1892 0
1830 1892 -5827 5828 0
1892 -1830 5827 5828 0
1830 -1892 5827 5828 0
1954 2061 5828 -5829 0
-1954 -2061 5828 -5829 0
1954 -2061 -5828 -5829 0
2061 -1954 -5828 -5829 0
5829 -5828 -1954 -2061 0
1954 2061 -5828 5829 0
2061 -1954 5828 5829 0
1954 -2061 5828 5829 0
2123 2185 5829 -5830 0
-2123 -2185 5829 -5830 0
2123 -2185 -5829 -5830 0
2185 -2123 -5829 -5830 0
5830 -5829 -2123 -2185 0
2123 2185 -5829 5830 0
2185 -2123 5829 5830 0
2123 -2185 5829 5830 0
2250 2309 5830 -5831 0
-2250 -2309 5830 -5831 0
2250 -2309 -5830 -5831 0
2309 -2250 -5830 -5831 0
5831 -5830 -2250 -2309 0
2250 2309 -5830 5831 0
2309 -2250 5830 5831 0
2250 -2309 5830 5831 0
2295 5810 5831 -5832 0
-2295 -5810 5831 -5832 0
-2295 5810 -5831 -5832 0
2295 -5810 -5831 -5832 0
-2295 -5810 -5831 5832 0
2295 5810 -5831 5832 0
2295 -5810 5831 5832 0
-2295 5810 5831 5832 0
2357 5786 5832 -5833 0
-2357 -5786 5832 -5833 0
2357 -5786 -5832 -5833 0
-2357 5786 -5832 -5833 0
-2357 -5786 -5832 5833 0
2357 5786 -5832 5833 0
-2357 5786 5832 5833 0
2357 -5786 5832 5833 0
2419 5782 5833 -5834 0
-2419 -5782 5833 -5834 0
2419 -5782 -5833 -5834 0
-2419 5782 -5833 -5834 0
-2419 -5782 -5833 5834 0
2419 5782 -5833 5834 0
-2419 5782 5833 5834 0
2419 -5782 5833 5834 0
2481 2575 5834 -5835 0
-2481 -2575 5834 -5835 0
2481 -2575 -5834 -5835 0
2575 -2481 -5834 -5835 0
5835 -5834 -2481 -2575 0
2481 2575 -5834 5835 0
2575 -2481 5834 5835 0
2481 -2575 5834 5835 0
2640 2699 5835 -5836 0
-2640 -2699 5835 -5836 0
2640 -2699 -5835 -5836 0
2699 -2640 -5835 -5836 0
-2640 -2699 -5835 5836 0
2640 2699 -5835 5836 0
2699 -2640 5835 5836 0
2640 -2699 5835 5836 0
2761 2826 5836 -5837 0
-2761 -2826 5836 -5837 0
2761 -2826 -5836 -5837 0
2826 -2761 -5836 -5837 0
5837 -5836 -2761 -2826 0
2761 2826 -5836 5837 0
2826 -2761 5836 5837 0
2761 -2826 5836 5837 0
2885 2947 5837 -5838 0
-2885 -2947 5837 -5838 0
2885 -2947 -5837 -5838 0
2947 -2885 -5837 -5838 0
5838 -5837 -2885 -2947 0
2885 2947 -5837 5838 0
2947 -2885 5837 5838 0
2885 -2947 5837 5838 0
3009 3071 5838 -5839 0
-3009 -3071 5838 -5839 0
3009 -3071 -5838 -5839 0
3071 -3009 -5838 -5839 0
5839 -5838 -3009 -3071 0
3009 3071 -5838 5839 0
3071 -3009 5838 5839 0
3009 -3071 5838 5839 0
3136 3195 5839 -5840 0
-3136 -3195 5839 -5840 0
3136 -3195 -5839 -5840 0
3195 -3136 -5839 -5840 0
5840 -5839 -3136 -3195 0
3136 3195 -5839 5840 0
3195 -3136 5839 5840 0
3136 -3195 5839 5840 0
3257 3322 5840 -5841 0
-3257 -3322 5840 -5841 0
3257 -3322 -5840 -5841 0
3322 -3257 -5840 -5841 0
5841 -5840 -3257 -3322 0
3257 3322 -5840 5841 0
3322 -3257 5840 5841 0
3257 -3322 5840 5841 0
3381 3443 5841 -5842 0
-3381 -3443 5841 -5842 0
3381 -3443 -5841 -5842 0
3443 -3381 -5841 -5842 0
5842 -5841 -3381 -3443 0
3381 3443 -5841 5842 0
3443 -3381 5841 5842 0
3381 -3443 5841 5842 0
3505 3567 5842 -5843 0
-3505 -3567 5842 -5843 0
3505 -3567 -5842 -5843 0
3567 -3505 -5842 -5843 0
5843 -5842 -3505 -3567 0
3505 3567 -5842 5843 0
3567 -3505 5842 5843 0
3505 -3567 5842 5843 0
3629 3691 5843 -5844 0
-3629 -3691 5843 -5844 0
3629 -3691 -5843 -5844 0
3691 -3629 -5843 -5844 0
5844 -5843 -3629 -3691 0
3629 3691 -5843 5844 0
3691 -3629 5843 5844 0
3629 -3691 5843 5844 0
3756 3815 5844 -5845 0
-3756 -3815 5844 -5845 0
3756 -3815 -5844 -5845 0
3815 -3756 -5844 -5845 0
5845 -5844 -3756 -3815 0
3756 3815 -5844 5845 0
3815 -3756 5844 5845 0
3756 -3815 5844 5845 0
3877 3942 5845 -5846 0
-3877 -3942 5845 -5846 0
3877 -3942 -5845 -5846 0
3942 -3877 -5845 -5846 0
5846 -5845 -3877 -3942 0
3877 3942 -5845 5846 0
3942 -3877 5845 5846 0
3877 -3942 5845 5846 0
11 -71 -5847 0
71 -11 -5847 0
-11 -71 5847 0
11 71 5847 0
133 195 5847 -5848 0
-133 -195 5847 -5848 0
133 -195 -5847 -5848 0
195 -133 -5847 -5848 0
5848 -5847 -133 -195 0
133 195 -5847 5848 0
195 -133 5847 5848 0
133 -195 5847 5848 0
-203 5848 -5849 0
203 -5848 -5849 0
5849 -5848 -203 0
203 5848 5849 0
319 381 5849 -5850 0
-319 -381 5849 -5850 0
319 -381 -5849 -5850 0
381 -319 -5849 -5850 0
5850 -5849 -319 -381 0
319 381 -5849 5850 0
381 -319 5849 5850 0
319 -381 5849 5850 0
2 44 106 -5851 0
2 -44 -106 -5851 0
44 -2 -106 -5851 0
106 -2 -44 -5851 0
-2 -44 -106 5851 0
44 106 -2 5851 0
2 106 -44 5851 0
2 44 -106 5851 0
139 5517 5851 -5852 0
-139 -5517 5851 -5852 0
-139 5517 -5851 -5852 0
139 -5517 -5851 -5852 0
-139 -5517 -5851 5852 0
139 5517 -5851 5852 0
139 -5517 5851 5852 0
-139 5517 5851 5852 0
201 5848 5852 -5853 0
-201 5848 -5852 -5853 0
-201 -5848 5852 -5853 0
201 -5848 -5852 -5853 0
5853 -5848 -5852 -201 0
201 -5848 5852 5853 0
201 5848 -5852 5853 0
-201 5848 5852 5853 0
263 5788 5853 -5854 0
-263 -5788 5853 -5854 0
-263 5788 -5853 -5854 0
263 -5788 -5853 -5854 0
-263 -5788 -5853 5854 0
263 5788 -5853 5854 0
263 -5788 5853 5854 0
-263 5788 5853 5854 0
325 5813 5854 -5855 0
-325 -5813 5854 -5855 0
-325 5813 -5854 -5855 0
325 -5813 -5854 -5855 0
-325 -5813 -5854 5855 0
325 5813 -5854 5855 0
325 -5813 5854 5855 0
-325 5813 5854 5855 0
387 5850 5855 -5856 0
-387 -5850 5855 -5856 0
-387 5850 -5855 -5856 0
387 -5850 -5855 -5856 0
-387 -5850 -5855 5856 0
387 5850 -5855 5856 0
387 -5850 5855 5856 0
-387 5850 5855 5856 0
449 5765 5856 -5857 0
-449 -5765 5856 -5857 0
-449 5765 -5856 -5857 0
449 -5765 -5856 -5857 0
-449 -5765 -5856 5857 0
449 5765 -5856 5857 0
449 -5765 5856 5857 0
-449 5765 5856 5857 0
543 608 5857 -5858 0
-543 -608 5857 -5858 0
543 -608 -5857 -5858 0
608 -543 -5857 -5858 0
5858 -5857 -543 -608 0
543 608 -5857 5858 0
608 -543 5857 5858 0
543 -608 5857 5858 0
667 729 5858 -5859 0
-667 -729 5858 -5859 0
667 -729 -5858 -5859 0
729 -667 -5858 -5859 0
5859 -5858 -667 -729 0
667 729 -5858 5859 0
729 -667 5858 5859 0
667 -729 5858 5859 0
794 853 5859 -5860 0
-794 -853 5859 -5860 0
794 -853 -5859 -5860 0
853 -794 -5859 -5860 0
5860 -5859 -794 -853 0
794 853 -5859 5860 0
853 -794 5859 5860 0
794 -853 5859 5860 0
915 977 5860 -5861 0
-915 -977 5860 -5861 0
915 -977 -5860 -5861 0
977 -915 -5860 -5861 0
5861 -5860 -915 -977 0
915 977 -5860 5861 0
977 -915 5860 5861 0
915 -977 5860 5861 0
1039 1104 5861 -5862 0
-1039 -1104 5861 -5862 0
1039 -1104 -5861 -5862 0
1104 -1039 -5861 -5862 0
5862 -5861 -1039 -1104 0
1039 1104 -5861 5862 0
1104 -1039 5861 5862 0
1039 -1104 5861 5862 0
1163 1225 5862 -5863 0
-1163 -1225 5862 -5863 0
1163 -1225 -5862 -5863 0
1225 -1163 -5862 -5863 0
5863 -5862 -1163 -1225 0
1163 1225 -5862 5863 0
1225 -1163 5862 5863 0
1163 -1225 5862 5863 0
1290 1349 5863 -5864 0
-1290 -1349 5863 -5864 0
1290 -1349 -5863 -5864 0
1349 -1290 -5863 -5864 0
5864 -5863 -1290 -1349 0
1290 1349 -5863 5864 0
1349 -1290 5863 5864 0
1290 -1349 5863 5864 0
1411 1473 5864 -5865 0
-1411 -1473 5864 -5865 0
1411 -1473 -5864 -5865 0
1473 -1411 -5864 -5865 0
5865 -5864 -1411 -1473 0
1411 1473 -5864 5865 0
1473 -1411 5864 5865 0
1411 -1473 5864 5865 0
1535 1597 5865 -5866 0
-1535 -1597 5865 -5866 0
1535 -1597 -5865 -5866 0
1597 -1535 -5865 -5866 0
5866 -5865 -1535 -1597 0
1535 1597 -5865 5866 0
1597 -1535 5865 5866 0
1535 -1597 5865 5866 0
1659 1724 5866 -5867 0
-1659 -1724 5866 -5867 0
1659 -1724 -5866 -5867 0
1724 -1659 -5866 -5867 0
5867 -5866 -1659 -1724 0
1659 1724 -5866 5867 0
1724 -1659 5866 5867 0
1659 -1724 5866 5867 0
1783 1845 5867 -5868 0
-1783 -1845 5867 -5868 0
1783 -1845 -5867 -5868 0
1845 -1783 -5867 -5868 0
5868 -5867 -1783 -1845 0
1783 1845 -5867 5868 0
1845 -1783 5867 5868 0
1783 -1845 5867 5868 0
1910 1969 5868 -5869 0
-1910 -1969 5868 -5869 0
1910 -1969 -5868 -5869 0
1969 -1910 -5868 -5869 0
5869 -5868 -1910 -1969 0
1910 1969 -5868 5869 0
1969 -1910 5868 5869 0
1910 -1969 5868 5869 0
4001 5846 5869 0
5869 -5846 -4001 0
-4001 5846 -5869 0
4001 -5846 -5869 0
22 84 146 -5870 0
22 -84 -146 -5870 0
84 -22 -146 -5870 0
146 -22 -84 -5870 0
5870 -22 -84 -146 0
84 146 -22 5870 0
22 146 -84 5870 0
5870 22 84 -146 0
211 5362 5870 -5871 0
-211 5362 -5870 -5871 0
-211 -5362 5870 -5871 0
211 -5362 -5870 -5871 0
5871 -5362 -5870 -211 0
211 -5362 5870 5871 0
211 5362 -5870 5871 0
-211 5362 5870 5871 0
264 335 5871 -5872 0
-264 -335 5871 -5872 0
264 -335 -5871 -5872 0
335 -264 -5871 -5872 0
5872 -5871 -264 -335 0
264 335 -5871 5872 0
335 -264 5871 5872 0
264 -335 5871 5872 0
397 459 5872 -5873 0
-397 -459 5872 -5873 0
397 -459 -5872 -5873 0
459 -397 -5872 -5873 0
5873 -5872 -397 -459 0
397 459 -5872 5873 0
459 -397 5872 5873 0
397 -459 5872 5873 0
521 583 5873 -5874 0
-521 -583 5873 -5874 0
521 -583 -5873 -5874 0
583 -521 -5873 -5874 0
5874 -5873 -521 -583 0
521 583 -5873 5874 0
583 -521 5873 5874 0
521 -583 5873 5874 0
645 707 5874 -5875 0
-645 -707 5874 -5875 0
645 -707 -5874 -5875 0
707 -645 -5874 -5875 0
5875 -5874 -645 -707 0
645 707 -5874 5875 0
707 -645 5874 5875 0
645 -707 5874 5875 0
769 831 5875 -5876 0
-769 -831 5875 -5876 0
769 -831 -5875 -5876 0
831 -769 -5875 -5876 0
5876 -5875 -769 -831 0
769 831 -5875 5876 0
831 -769 5875 5876 0
769 -831 5875 5876 0
893 955 5876 -5877 0
-893 -955 5876 -5877 0
893 -955 -5876 -5877 0
955 -893 -5876 -5877 0
5877 -5876 -893 -955 0
893 955 -5876 5877 0
955 -893 5876 5877 0
893 -955 5876 5877 0
1014 1079 5877 -5878 0
-1014 -1079 5877 -5878 0
1014 -1079 -5877 -5878 0
1079 -1014 -5877 -5878 0
5878 -5877 -1014 -1079 0
1014 1079 -5877 5878 0
1079 -1014 5877 5878 0
1014 -1079 5877 5878 0
1138 1203 5878 -5879 0
-1138 -1203 5878 -5879 0
1138 -1203 -5878 -5879 0
1203 -1138 -5878 -5879 0
5879 -5878 -1138 -1203 0
1138 1203 -5878 5879 0
1203 -1138 5878 5879 0
1138 -1203 5878 5879 0
1265 1327 5879 -5880 0
-1265 -1327 5879 -5880 0
1265 -1327 -5879 -5880 0
1327 -1265 -5879 -5880 0
5880 -5879 -1265 -1327 0
1265 1327 -5879 5880 0
1327 -1265 5879 5880 0
1265 -1327 5879 5880 0
6 55 117 -5881 0
6 -55 -117 -5881 0
55 -6 -117 -5881 0
117 -6 -55 -5881 0
-6 -55 -117 5881 0
55 117 -6 5881 0
6 117 -55 5881 0
6 55 -117 5881 0
179 244 5881 -5882 0
-179 -244 5881 -5882 0
179 -244 -5881 -5882 0
244 -179 -5881 -5882 0
5882 -5881 -179 -244 0
179 244 -5881 5882 0
244 -179 5881 5882 0
179 -244 5881 5882 0
303 365 5882 -5883 0
-303 -365 5882 -5883 0
303 -365 -5882 -5883 0
365 -303 -5882 -5883 0
5883 -5882 -303 -365 0
303 365 -5882 5883 0
365 -303 5882 5883 0
303 -365 5882 5883 0
430 489 5883 -5884 0
-430 -489 5883 -5884 0
430 -489 -5883 -5884 0
489 -430 -5883 -5884 0
5884 -5883 -430 -489 0
430 489 -5883 5884 0
489 -430 5883 5884 0
430 -489 5883 5884 0
551 616 5884 -5885 0
-551 -616 5884 -5885 0
551 -616 -5884 -5885 0
616 -551 -5884 -5885 0
5885 -5884 -551 -616 0
551 616 -5884 5885 0
616 -551 5884 5885 0
551 -616 5884 5885 0
675 737 5885 -5886 0
-675 -737 5885 -5886 0
675 -737 -5885 -5886 0
737 -675 -5885 -5886 0
5886 -5885 -675 -737 0
675 737 -5885 5886 0
737 -675 5885 5886 0
675 -737 5885 5886 0
802 861 5886 -5887 0
-802 -861 5886 -5887 0
802 -861 -5886 -5887 0
861 -802 -5886 -5887 0
5887 -5886 -802 -861 0
802 861 -5886 5887 0
861 -802 5886 5887 0
802 -861 5886 5887 0
923 985 5887 -5888 0
-923 -985 5887 -5888 0
923 -985 -5887 -5888 0
985 -923 -5887 -5888 0
5888 -5887 -923 -985 0
923 985 -5887 5888 0
985 -923 5887 5888 0
923 -985 5887 5888 0
1047 1112 5888 -5889 0
-1047 -1112 5888 -5889 0
1047 -1112 -5888 -5889 0
1112 -1047 -5888 -5889 0
5889 -5888 -1047 -1112 0
1047 1112 -5888 5889 0
1112 -1047 5888 5889 0
1047 -1112 5888 5889 0
1171 1233 5889 -5890 0
-1171 -1233 5889 -5890 0
1171 -1233 -5889 -5890 0
1233 -1171 -5889 -5890 0
5890 -5889 -1171 -1233 0
1171 1233 -5889 5890 0
1233 -1171 5889 5890 0
1171 -1233 5889 5890 0
1298 1357 5890 -5891 0
-1298 -1357 5890 -5891 0
1298 -1357 -5890 -5891 0
1357 -1298 -5890 -5891 0
5891 -5890 -1298 -1357 0
1298 1357 -5890 5891 0
1357 -1298 5890 5891 0
1298 -1357 5890 5891 0
1380 5880 5891 -5892 0
-1380 -5880 5891 -5892 0
-1380 5880 -5891 -5892 0
1380 -5880 -5891 -5892 0
-1380 -5880 -5891 5892 0
1380 5880 -5891 5892 0
1380 -5880 5891 5892 0
-1380 5880 5891 5892 0
-386 5364 -5893 0
386 -5364 -5893 0
5893 -5364 -386 0
386 5364 5893 0
31 -93 -5894 0
93 -31 -5894 0
5894 -31 -93 0
5894 31 93 0
155 220 5894 -5895 0
-155 -220 5894 -5895 0
155 -220 -5894 -5895 0
220 -155 -5894 -5895 0
5895 -5894 -155 -220 0
155 220 -5894 5895 0
220 -155 5894 5895 0
155 -220 5894 5895 0
279 341 5895 -5896 0
-279 -341 5895 -5896 0
279 -341 -5895 -5896 0
341 -279 -5895 -5896 0
5896 -5895 -279 -341 0
279 341 -5895 5896 0
341 -279 5895 5896 0
279 -341 5895 5896 0
406 5893 5896 -5897 0
-406 -5893 5896 -5897 0
406 -5893 -5896 -5897 0
-406 5893 -5896 -5897 0
-406 -5893 -5896 5897 0
406 5893 -5896 5897 0
-406 5893 5896 5897 0
406 -5893 5896 5897 0
450 527 5897 -5898 0
-450 -527 5897 -5898 0
450 -527 -5897 -5898 0
527 -450 -5897 -5898 0
5898 -5897 -450 -527 0
450 527 -5897 5898 0
527 -450 5897 5898 0
450 -527 5897 5898 0
592 651 5898 -5899 0
-592 -651 5898 -5899 0
592 -651 -5898 -5899 0
651 -592 -5898 -5899 0
-592 -651 -5898 5899 0
592 651 -5898 5899 0
651 -592 5898 5899 0
592 -651 5898 5899 0
716 778 5899 -5900 0
-716 -778 5899 -5900 0
716 -778 -5899 -5900 0
778 -716 -5899 -5900 0
5900 -5899 -716 -778 0
716 778 -5899 5900 0
778 -716 5899 5900 0
716 -778 5899 5900 0
840 902 5900 -5901 0
-840 -902 5900 -5901 0
840 -902 -5900 -5901 0
902 -840 -5900 -5901 0
5901 -5900 -840 -902 0
840 902 -5900 5901 0
902 -840 5900 5901 0
840 -902 5900 5901 0
964 1023 5901 -5902 0
-964 -1023 5901 -5902 0
964 -1023 -5901 -5902 0
1023 -964 -5901 -5902 0
5902 -5901 -964 -1023 0
964 1023 -5901 5902 0
1023 -964 5901 5902 0
964 -1023 5901 5902 0
1088 1147 5902 -5903 0
-1088 -1147 5902 -5903 0
1088 -1147 -5902 -5903 0
1147 -1088 -5902 -5903 0
5903 -5902 -1088 -1147 0
1088 1147 -5902 5903 0
1147 -1088 5902 5903 0
1088 -1147 5902 5903 0
1209 1274 5903 -5904 0
-1209 -1274 5903 -5904 0
1209 -1274 -5903 -5904 0
1274 -1209 -5903 -5904 0
5904 -5903 -1209 -1274 0
1209 1274 -5903 5904 0
1274 -1209 5903 5904 0
1209 -1274 5903 5904 0
1333 1395 5904 -5905 0
-1333 -1395 5904 -5905 0
1333 -1395 -5904 -5905 0
1395 -1333 -5904 -5905 0
5905 -5904 -1333 -1395 0
1333 1395 -5904 5905 0
1395 -1333 5904 5905 0
1333 -1395 5904 5905 0
1442 5892 5905 -5906 0
-1442 -5892 5905 -5906 0
-1442 5892 -5905 -5906 0
1442 -5892 -5905 -5906 0
-1442 -5892 -5905 5906 0
1442 5892 -5905 5906 0
1442 -5892 5905 5906 0
-1442 5892 5905 5906 0
1546 1608 5906 -5907 0
-1546 -1608 5906 -5907 0
1546 -1608 -5906 -5907 0
1608 -1546 -5906 -5907 0
5907 -5906 -1546 -1608 0
1546 1608 -5906 5907 0
1608 -1546 5906 5907 0
1546 -1608 5906 5907 0
1670 1735 5907 -5908 0
-1670 -1735 5907 -5908 0
1670 -1735 -5907 -5908 0
1735 -1670 -5907 -5908 0
5908 -5907 -1670 -1735 0
1670 1735 -5907 5908 0
1735 -1670 5907 5908 0
1670 -1735 5907 5908 0
1794 1856 5908 -5909 0
-1794 -1856 5908 -5909 0
1794 -1856 -5908 -5909 0
1856 -1794 -5908 -5909 0
5909 -5908 -1794 -1856 0
1794 1856 -5908 5909 0
1856 -1794 5908 5909 0
1794 -1856 5908 5909 0
1921 1980 5909 -5910 0
-1921 -1980 5909 -5910 0
1921 -1980 -5909 -5910 0
1980 -1921 -5909 -5910 0
5910 -5909 -1921 -1980 0
1921 1980 -5909 5910 0
1980 -1921 5909 5910 0
1921 -1980 5909 5910 0
-2418 5474 -5911 0
2418 -5474 -5911 0
5911 -5474 -2418 0
2418 5474 5911 0
-1440 5905 -5912 0
1440 -5905 -5912 0
5912 -5905 -1440 0
1440 5905 5912 0
1519 1584 5912 -5913 0
-1519 -1584 5912 -5913 0
1519 -1584 -5912 -5913 0
1584 -1519 -5912 -5913 0
5913 -5912 -1519 -1584 0
1519 1584 -5912 5913 0
1584 -1519 5912 5913 0
1519 -1584 5912 5913 0
1643 1708 5913 -5914 0
-1643 -1708 5913 -5914 0
1643 -1708 -5913 -5914 0
1708 -1643 -5913 -5914 0
5914 -5913 -1643 -1708 0
1643 1708 -5913 5914 0
1708 -1643 5913 5914 0
1643 -1708 5913 5914 0
1750 1832 5914 -5915 0
-1750 -1832 5914 -5915 0
1750 -1832 -5914 -5915 0
1832 -1750 -5914 -5915 0
5915 -5914 -1750 -1832 0
1750 1832 -5914 5915 0
1832 -1750 5914 5915 0
1750 -1832 5914 5915 0
1894 1956 5915 -5916 0
-1894 -1956 5915 -5916 0
1894 -1956 -5915 -5916 0
1956 -1894 -5915 -5916 0
5916 -5915 -1894 -1956 0
1894 1956 -5915 5916 0
1956 -1894 5915 5916 0
1894 -1956 5915 5916 0
2063 2125 5916 -5917 0
-2063 -2125 5916 -5917 0
2063 -2125 -5916 -5917 0
2125 -2063 -5916 -5917 0
5917 -5916 -2063 -2125 0
2063 2125 -5916 5917 0
2125 -2063 5916 5917 0
2063 -2125 5916 5917 0
2187 2252 5917 -5918 0
-2187 -2252 5917 -5918 0
2187 -2252 -5917 -5918 0
2252 -2187 -5917 -5918 0
5918 -5917 -2187 -2252 0
2187 2252 -5917 5918 0
2252 -2187 5917 5918 0
2187 -2252 5917 5918 0
2311 2373 5918 -5919 0
-2311 -2373 5918 -5919 0
2311 -2373 -5918 -5919 0
2373 -2311 -5918 -5919 0
5919 -5918 -2311 -2373 0
2311 2373 -5918 5919 0
2373 -2311 5918 5919 0
2311 -2373 5918 5919 0
2438 5911 5919 -5920 0
-2438 -5911 5919 -5920 0
2438 -5911 -5919 -5920 0
-2438 5911 -5919 -5920 0
-2438 -5911 -5919 5920 0
2438 5911 -5919 5920 0
-2438 5911 5919 5920 0
2438 -5911 5919 5920 0
2482 2559 5920 -5921 0
-2482 -2559 5920 -5921 0
2482 -2559 -5920 -5921 0
2559 -2482 -5920 -5921 0
5921 -5920 -2482 -2559 0
2482 2559 -5920 5921 0
2559 -2482 5920 5921 0
2482 -2559 5920 5921 0
2624 2683 5921 -5922 0
-2624 -2683 5921 -5922 0
2624 -2683 -5921 -5922 0
2683 -2624 -5921 -5922 0
-2624 -2683 -5921 5922 0
2624 2683 -5921 5922 0
2683 -2624 5921 5922 0
2624 -2683 5921 5922 0
2748 2810 5922 -5923 0
-2748 -2810 5922 -5923 0
2748 -2810 -5922 -5923 0
2810 -2748 -5922 -5923 0
5923 -5922 -2748 -2810 0
2748 2810 -5922 5923 0
2810 -2748 5922 5923 0
2748 -2810 5922 5923 0
2872 2934 5923 -5924 0
-2872 -2934 5923 -5924 0
2872 -2934 -5923 -5924 0
2934 -2872 -5923 -5924 0
5924 -5923 -2872 -2934 0
2872 2934 -5923 5924 0
2934 -2872 5923 5924 0
2872 -2934 5923 5924 0
2996 3055 5924 -5925 0
-2996 -3055 5924 -5925 0
2996 -3055 -5924 -5925 0
3055 -2996 -5924 -5925 0
5925 -5924 -2996 -3055 0
2996 3055 -5924 5925 0
3055 -2996 5924 5925 0
2996 -3055 5924 5925 0
3120 3179 5925 -5926 0
-3120 -3179 5925 -5926 0
3120 -3179 -5925 -5926 0
3179 -3120 -5925 -5926 0
5926 -5925 -3120 -3179 0
3120 3179 -5925 5926 0
3179 -3120 5925 5926 0
3120 -3179 5925 5926 0
3241 3306 5926 -5927 0
-3241 -3306 5926 -5927 0
3241 -3306 -5926 -5927 0
3306 -3241 -5926 -5927 0
5927 -5926 -3241 -3306 0
3241 3306 -5926 5927 0
3306 -3241 5926 5927 0
3241 -3306 5926 5927 0
3365 3427 5927 -5928 0
-3365 -3427 5927 -5928 0
3365 -3427 -5927 -5928 0
3427 -3365 -5927 -5928 0
5928 -5927 -3365 -3427 0
3365 3427 -5927 5928 0
3427 -3365 5927 5928 0
3365 -3427 5927 5928 0
-1378 5880 -5929 0
1378 -5880 -5929 0
5929 -5880 -1378 0
1378 5880 5929 0
1451 1513 5929 -5930 0
-1451 -1513 5929 -5930 0
1451 -1513 -5929 -5930 0
1513 -1451 -5929 -5930 0
5930 -5929 -1451 -1513 0
1451 1513 -5929 5930 0
1513 -1451 5929 5930 0
1451 -1513 5929 5930 0
1575 1637 5930 -5931 0
-1575 -1637 5930 -5931 0
1575 -1637 -5930 -5931 0
1637 -1575 -5930 -5931 0
5931 -5930 -1575 -1637 0
1575 1637 -5930 5931 0
1637 -1575 5930 5931 0
1575 -1637 5930 5931 0
1699 1761 5931 -5932 0
-1699 -1761 5931 -5932 0
1699 -1761 -5931 -5932 0
1761 -1699 -5931 -5932 0
5932 -5931 -1699 -1761 0
1699 1761 -5931 5932 0
1761 -1699 5931 5932 0
1699 -1761 5931 5932 0
1823 1885 5932 -5933 0
-1823 -1885 5932 -5933 0
1823 -1885 -5932 -5933 0
1885 -1823 -5932 -5933 0
5933 -5932 -1823 -1885 0
1823 1885 -5932 5933 0
1885 -1823 5932 5933 0
1823 -1885 5932 5933 0
1947 2054 5933 -5934 0
-1947 -2054 5933 -5934 0
1947 -2054 -5933 -5934 0
2054 -1947 -5933 -5934 0
5934 -5933 -1947 -2054 0
1947 2054 -5933 5934 0
2054 -1947 5933 5934 0
1947 -2054 5933 5934 0
2116 2178 5934 -5935 0
-2116 -2178 5934 -5935 0
2116 -2178 -5934 -5935 0
2178 -2116 -5934 -5935 0
5935 -5934 -2116 -2178 0
2116 2178 -5934 5935 0
2178 -2116 5934 5935 0
2116 -2178 5934 5935 0
2243 5472 5935 -5936 0
-2243 5472 -5935 -5936 0
-2243 -5472 5935 -5936 0
2243 -5472 -5935 -5936 0
5936 -5472 -5935 -2243 0
2243 -5472 5935 5936 0
2243 5472 -5935 5936 0
-2243 5472 5935 5936 0
2296 2367 5936 -5937 0
-2296 -2367 5936 -5937 0
2296 -2367 -5936 -5937 0
2367 -2296 -5936 -5937 0
5937 -5936 -2296 -2367 0
2296 2367 -5936 5937 0
2367 -2296 5936 5937 0
2296 -2367 5936 5937 0
2429 2491 5937 -5938 0
-2429 -2491 5937 -5938 0
2429 -2491 -5937 -5938 0
2491 -2429 -5937 -5938 0
5938 -5937 -2429 -2491 0
2429 2491 -5937 5938 0
2491 -2429 5937 5938 0
2429 -2491 5937 5938 0
2553 2615 5938 -5939 0
-2553 -2615 5938 -5939 0
2553 -2615 -5938 -5939 0
2615 -2553 -5938 -5939 0
5939 -5938 -2553 -2615 0
2553 2615 -5938 5939 0
2615 -2553 5938 5939 0
2553 -2615 5938 5939 0
2677 2739 5939 -5940 0
-2677 -2739 5939 -5940 0
2677 -2739 -5939 -5940 0
2739 -2677 -5939 -5940 0
5940 -5939 -2677 -2739 0
2677 2739 -5939 5940 0
2739 -2677 5939 5940 0
2677 -2739 5939 5940 0
2801 2863 5940 -5941 0
-2801 -2863 5940 -5941 0
2801 -2863 -5940 -5941 0
2863 -2801 -5940 -5941 0
5941 -5940 -2801 -2863 0
2801 2863 -5940 5941 0
2863 -2801 5940 5941 0
2801 -2863 5940 5941 0
2925 2987 5941 -5942 0
-2925 -2987 5941 -5942 0
2925 -2987 -5941 -5942 0
2987 -2925 -5941 -5942 0
5942 -5941 -2925 -2987 0
2925 2987 -5941 5942 0
2987 -2925 5941 5942 0
2925 -2987 5941 5942 0
3046 3111 5942 -5943 0
-3046 -3111 5942 -5943 0
3046 -3111 -5942 -5943 0
3111 -3046 -5942 -5943 0
5943 -5942 -3046 -3111 0
3046 3111 -5942 5943 0
3111 -3046 5942 5943 0
3046 -3111 5942 5943 0
3170 3235 5943 -5944 0
-3170 -3235 5943 -5944 0
3170 -3235 -5943 -5944 0
3235 -3170 -5943 -5944 0
5944 -5943 -3170 -3235 0
3170 3235 -5943 5944 0
3235 -3170 5943 5944 0
3170 -3235 5943 5944 0
3297 3359 5944 -5945 0
-3297 -3359 5944 -5945 0
3297 -3359 -5944 -5945 0
3359 -3297 -5944 -5945 0
5945 -5944 -3297 -3359 0
3297 3359 -5944 5945 0
3359 -3297 5944 5945 0
3297 -3359 5944 5945 0
2038 -2087 -5946 0
2087 -2038 -5946 0
-2038 -2087 5946 0
2038 2087 5946 0
2149 2211 5946 -5947 0
-2149 -2211 5946 -5947 0
2149 -2211 -5946 -5947 0
2211 -2149 -5946 -5947 0
5947 -5946 -2149 -2211 0
2149 2211 -5946 5947 0
2211 -2149 5946 5947 0
2149 -2211 5946 5947 0
2276 2335 5947 -5948 0
-2276 -2335 5947 -5948 0
2276 -2335 -5947 -5948 0
2335 -2276 -5947 -5948 0
5948 -5947 -2276 -2335 0
2276 2335 -5947 5948 0
2335 -2276 5947 5948 0
2276 -2335 5947 5948 0
2397 2462 5948 -5949 0
-2397 -2462 5948 -5949 0
2397 -2462 -5948 -5949 0
2462 -2397 -5948 -5949 0
5949 -5948 -2397 -2462 0
2397 2462 -5948 5949 0
2462 -2397 5948 5949 0
2397 -2462 5948 5949 0
2521 2583 5949 -5950 0
-2521 -2583 5949 -5950 0
2521 -2583 -5949 -5950 0
2583 -2521 -5949 -5950 0
5950 -5949 -2521 -2583 0
2521 2583 -5949 5950 0
2583 -2521 5949 5950 0
2521 -2583 5949 5950 0
2648 2707 5950 -5951 0
-2648 -2707 5950 -5951 0
2648 -2707 -5950 -5951 0
2707 -2648 -5950 -5951 0
-2648 -2707 -5950 5951 0
2648 2707 -5950 5951 0
2707 -2648 5950 5951 0
2648 -2707 5950 5951 0
2769 2834 5951 -5952 0
-2769 -2834 5951 -5952 0
2769 -2834 -5951 -5952 0
2834 -2769 -5951 -5952 0
5952 -5951 -2769 -2834 0
2769 2834 -5951 5952 0
2834 -2769 5951 5952 0
2769 -2834 5951 5952 0
2893 2955 5952 -5953 0
-2893 -2955 5952 -5953 0
2893 -2955 -5952 -5953 0
2955 -2893 -5952 -5953 0
5953 -5952 -2893 -2955 0
2893 2955 -5952 5953 0
2955 -2893 5952 5953 0
2893 -2955 5952 5953 0
3017 3079 5953 -5954 0
-3017 -3079 5953 -5954 0
3017 -3079 -5953 -5954 0
3079 -3017 -5953 -5954 0
5954 -5953 -3017 -3079 0
3017 3079 -5953 5954 0
3079 -3017 5953 5954 0
3017 -3079 5953 5954 0
3144 3203 5954 -5955 0
-3144 -3203 5954 -5955 0
3144 -3203 -5954 -5955 0
3203 -3144 -5954 -5955 0
5955 -5954 -3144 -3203 0
3144 3203 -5954 5955 0
3203 -3144 5954 5955 0
3144 -3203 5954 5955 0
3265 3330 5955 -5956 0
-3265 -3330 5955 -5956 0
3265 -3330 -5955 -5956 0
3330 -3265 -5955 -5956 0
5956 -5955 -3265 -3330 0
3265 3330 -5955 5956 0
3330 -3265 5955 5956 0
3265 -3330 5955 5956 0
3389 5945 5956 -5957 0
-3389 -5945 5956 -5957 0
3389 -5945 -5956 -5957 0
-3389 5945 -5956 -5957 0
-3389 -5945 -5956 5957 0
3389 5945 -5956 5957 0
-3389 5945 5956 5957 0
3389 -5945 5956 5957 0
3412 5928 5957 -5958 0
-3412 -5928 5957 -5958 0
3412 -5928 -5957 -5958 0
-3412 5928 -5957 -5958 0
-3412 -5928 -5957 5958 0
3412 5928 -5957 5958 0
-3412 5928 5957 5958 0
3412 -5928 5957 5958 0
3474 3578 5958 -5959 0
-3474 -3578 5958 -5959 0
3474 -3578 -5958 -5959 0
3578 -3474 -5958 -5959 0
5959 -5958 -3474 -3578 0
3474 3578 -5958 5959 0
3578 -3474 5958 5959 0
3474 -3578 5958 5959 0
3640 3702 5959 -5960 0
-3640 -3702 5959 -5960 0
3640 -3702 -5959 -5960 0
3702 -3640 -5959 -5960 0
5960 -5959 -3640 -3702 0
3640 3702 -5959 5960 0
3702 -3640 5959 5960 0
3640 -3702 5959 5960 0
3767 3826 5960 -5961 0
-3767 -3826 5960 -5961 0
3767 -3826 -5960 -5961 0
3826 -3767 -5960 -5961 0
5961 -5960 -3767 -3826 0
3767 3826 -5960 5961 0
3826 -3767 5960 5961 0
3767 -3826 5960 5961 0
3888 3953 5961 -5962 0
-3888 -3953 5961 -5962 0
3888 -3953 -5961 -5962 0
3953 -3888 -5961 -5962 0
5962 -5961 -3888 -3953 0
3888 3953 -5961 5962 0
3953 -3888 5961 5962 0
3888 -3953 5961 5962 0
4012 5910 5962 -5963 0
-4012 -5910 5962 -5963 0
4012 -5910 -5962 -5963 0
-4012 5910 -5962 -5963 0
-4012 -5910 -5962 5963 0
4012 5910 -5962 5963 0
-4012 5910 5962 5963 0
4012 -5910 5962 5963 0
-5963 0
38 100 162 -5964 0
38 -100 -162 -5964 0
100 -38 -162 -5964 0
162 -38 -100 -5964 0
5964 -38 -100 -162 0
100 162 -38 5964 0
38 162 -100 5964 0
5964 38 100 -162 0
227 286 5964 -5965 0
-227 -286 5964 -5965 0
227 -286 -5964 -5965 0
286 -227 -5964 -5965 0
5965 -5964 -227 -286 0
227 286 -5964 5965 0
286 -227 5964 5965 0
227 -286 5964 5965 0
348 413 5965 -5966 0
-348 -413 5965 -5966 0
348 -413 -5965 -5966 0
413 -348 -5965 -5966 0
5966 -5965 -348 -413 0
348 413 -5965 5966 0
413 -348 5965 5966 0
348 -413 5965 5966 0
472 534 5966 -5967 0
-472 -534 5966 -5967 0
472 -534 -5966 -5967 0
534 -472 -5966 -5967 0
5967 -5966 -472 -534 0
472 534 -5966 5967 0
534 -472 5966 5967 0
472 -534 5966 5967 0
599 658 5967 -5968 0
-599 -658 5967 -5968 0
599 -658 -5967 -5968 0
658 -599 -5967 -5968 0
-599 -658 -5967 5968 0
599 658 -5967 5968 0
658 -599 5967 5968 0
599 -658 5967 5968 0
720 785 5968 -5969 0
-720 -785 5968 -5969 0
720 -785 -5968 -5969 0
785 -720 -5968 -5969 0
5969 -5968 -720 -785 0
720 785 -5968 5969 0
785 -720 5968 5969 0
720 -785 5968 5969 0
-823 5969 -5970 0
823 -5969 -5970 0
5970 -5969 -823 0
823 5969 5970 0
885 971 5970 -5971 0
-885 -971 5970 -5971 0
885 -971 -5970 -5971 0
971 -885 -5970 -5971 0
5971 -5970 -885 -971 0
885 971 -5970 5971 0
971 -885 5970 5971 0
885 -971 5970 5971 0
1030 1095 5971 -5972 0
-1030 -1095 5971 -5972 0
1030 -1095 -5971 -5972 0
1095 -1030 -5971 -5972 0
5972 -5971 -1030 -1095 0
1030 1095 -5971 5972 0
1095 -1030 5971 5972 0
1030 -1095 5971 5972 0
1154 1216 5972 -5973 0
-1154 -1216 5972 -5973 0
1154 -1216 -5972 -5973 0
1216 -1154 -5972 -5973 0
5973 -5972 -1154 -1216 0
1154 1216 -5972 5973 0
1216 -1154 5972 5973 0
1154 -1216 5972 5973 0
1281 1340 5973 -5974 0
-1281 -1340 5973 -5974 0
1281 -1340 -5973 -5974 0
1340 -1281 -5973 -5974 0
5974 -5973 -1281 -1340 0
1281 1340 -5973 5974 0
1340 -1281 5973 5974 0
1281 -1340 5973 5974 0
1402 1464 5974 -5975 0
-1402 -1464 5974 -5975 0
1402 -1464 -5974 -5975 0
1464 -1402 -5974 -5975 0
5975 -5974 -1402 -1464 0
1402 1464 -5974 5975 0
1464 -1402 5974 5975 0
1402 -1464 5974 5975 0
1526 1588 5975 -5976 0
-1526 -1588 5975 -5976 0
1526 -1588 -5975 -5976 0
1588 -1526 -5975 -5976 0
5976 -5975 -1526 -1588 0
1526 1588 -5975 5976 0
1588 -1526 5975 5976 0
1526 -1588 5975 5976 0
1650 1715 5976 -5977 0
-1650 -1715 5976 -5977 0
1650 -1715 -5976 -5977 0
1715 -1650 -5976 -5977 0
5977 -5976 -1650 -1715 0
1650 1715 -5976 5977 0
1715 -1650 5976 5977 0
1650 -1715 5976 5977 0
1774 5341 5977 -5978 0
-1774 -5341 5977 -5978 0
1774 -5341 -5977 -5978 0
-1774 5341 -5977 -5978 0
-1774 -5341 -5977 5978 0
1774 5341 -5977 5978 0
-1774 5341 5977 5978 0
1774 -5341 5977 5978 0
1813 1901 5978 -5979 0
-1813 -1901 5978 -5979 0
1813 -1901 -5978 -5979 0
1901 -1813 -5978 -5979 0
5979 -5978 -1813 -1901 0
1813 1901 -5978 5979 0
1901 -1813 5978 5979 0
1813 -1901 5978 5979 0
1963 2070 5979 -5980 0
-1963 -2070 5979 -5980 0
1963 -2070 -5979 -5980 0
2070 -1963 -5979 -5980 0
5980 -5979 -1963 -2070 0
1963 2070 -5979 5980 0
2070 -1963 5979 5980 0
1963 -2070 5979 5980 0
2132 2194 5980 -5981 0
-2132 -2194 5980 -5981 0
2132 -2194 -5980 -5981 0
2194 -2132 -5980 -5981 0
5981 -5980 -2132 -2194 0
2132 2194 -5980 5981 0
2194 -2132 5980 5981 0
2132 -2194 5980 5981 0
2259 2318 5981 -5982 0
-2259 -2318 5981 -5982 0
2259 -2318 -5981 -5982 0
2318 -2259 -5981 -5982 0
5982 -5981 -2259 -2318 0
2259 2318 -5981 5982 0
2318 -2259 5981 5982 0
2259 -2318 5981 5982 0
2380 2445 5982 -5983 0
-2380 -2445 5982 -5983 0
2380 -2445 -5982 -5983 0
2445 -2380 -5982 -5983 0
5983 -5982 -2380 -2445 0
2380 2445 -5982 5983 0
2445 -2380 5982 5983 0
2380 -2445 5982 5983 0
2504 2566 5983 -5984 0
-2504 -2566 5983 -5984 0
2504 -2566 -5983 -5984 0
2566 -2504 -5983 -5984 0
5984 -5983 -2504 -2566 0
2504 2566 -5983 5984 0
2566 -2504 5983 5984 0
2504 -2566 5983 5984 0
2631 2690 5984 -5985 0
-2631 -2690 5984 -5985 0
2631 -2690 -5984 -5985 0
2690 -2631 -5984 -5985 0
-2631 -2690 -5984 5985 0
2631 2690 -5984 5985 0
2690 -2631 5984 5985 0
2631 -2690 5984 5985 0
2752 2817 5985 -5986 0
-2752 -2817 5985 -5986 0
2752 -2817 -5985 -5986 0
2817 -2752 -5985 -5986 0
5986 -5985 -2752 -2817 0
2752 2817 -5985 5986 0
2817 -2752 5985 5986 0
2752 -2817 5985 5986 0
2044 -2106 -5987 0
2106 -2044 -5987 0
-2044 -2106 5987 0
2044 2106 5987 0
2168 2230 5987 -5988 0
-2168 -2230 5987 -5988 0
2168 -2230 -5987 -5988 0
2230 -2168 -5987 -5988 0
5988 -5987 -2168 -2230 0
2168 2230 -5987 5988 0
2230 -2168 5987 5988 0
2168 -2230 5987 5988 0
2292 2354 5988 -5989 0
-2292 -2354 5988 -5989 0
2292 -2354 -5988 -5989 0
2354 -2292 -5988 -5989 0
5989 -5988 -2292 -2354 0
2292 2354 -5988 5989 0
2354 -2292 5988 5989 0
2292 -2354 5988 5989 0
2416 2478 5989 -5990 0
-2416 -2478 5989 -5990 0
2416 -2478 -5989 -5990 0
2478 -2416 -5989 -5990 0
5990 -5989 -2416 -2478 0
2416 2478 -5989 5990 0
2478 -2416 5989 5990 0
2416 -2478 5989 5990 0
2540 2602 5990 -5991 0
-2540 -2602 5990 -5991 0
2540 -2602 -5990 -5991 0
2602 -2540 -5990 -5991 0
5991 -5990 -2540 -2602 0
2540 2602 -5990 5991 0
2602 -2540 5990 5991 0
2540 -2602 5990 5991 0
-2607 5991 -5992 0
2607 -5991 -5992 0
5992 -5991 -2607 0
2607 5991 5992 0
2726 2788 5992 -5993 0
-2726 -2788 5992 -5993 0
2726 -2788 -5992 -5993 0
2788 -2726 -5992 -5993 0
5993 -5992 -2726 -2788 0
2726 2788 -5992 5993 0
2788 -2726 5992 5993 0
2726 -2788 5992 5993 0
-2359 5831 -5994 0
2359 -5831 -5994 0
5994 -5831 -2359 0
2359 5831 5994 0
2436 2498 5994 -5995 0
-2436 -2498 5994 -5995 0
2436 -2498 -5994 -5995 0
2498 -2436 -5994 -5995 0
5995 -5994 -2436 -2498 0
2436 2498 -5994 5995 0
2498 -2436 5994 5995 0
2436 -2498 5994 5995 0
2557 2622 5995 -5996 0
-2557 -2622 5995 -5996 0
2557 -2622 -5995 -5996 0
2622 -2557 -5995 -5996 0
5996 -5995 -2557 -2622 0
2557 2622 -5995 5996 0
2622 -2557 5995 5996 0
2557 -2622 5995 5996 0
59 -121 -5997 0
121 -59 -5997 0
5997 -59 -121 0
5997 59 121 0
183 248 5997 -5998 0
-183 -248 5997 -5998 0
183 -248 -5997 -5998 0
248 -183 -5997 -5998 0
5998 -5997 -183 -248 0
183 248 -5997 5998 0
248 -183 5997 5998 0
183 -248 5997 5998 0
307 369 5998 -5999 0
-307 -369 5998 -5999 0
307 -369 -5998 -5999 0
369 -307 -5998 -5999 0
5999 -5998 -307 -369 0
307 369 -5998 5999 0
369 -307 5998 5999 0
307 -369 5998 5999 0
434 493 5999 -6000 0
-434 -493 5999 -6000 0
434 -493 -5999 -6000 0
493 -434 -5999 -6000 0
6000 -5999 -434 -493 0
434 493 -5999 6000 0
493 -434 5999 6000 0
434 -493 5999 6000 0
555 620 6000 -6001 0
-555 -620 6000 -6001 0
555 -620 -6000 -6001 0
620 -555 -6000 -6001 0
6001 -6000 -555 -620 0
555 620 -6000 6001 0
620 -555 6000 6001 0
555 -620 6000 6001 0
679 741 6001 -6002 0
-679 -741 6001 -6002 0
679 -741 -6001 -6002 0
741 -679 -6001 -6002 0
6002 -6001 -679 -741 0
679 741 -6001 6002 0
741 -679 6001 6002 0
679 -741 6001 6002 0
806 865 6002 -6003 0
-806 -865 6002 -6003 0
806 -865 -6002 -6003 0
865 -806 -6002 -6003 0
6003 -6002 -806 -865 0
806 865 -6002 6003 0
865 -806 6002 6003 0
806 -865 6002 6003 0
927 989 6003 -6004 0
-927 -989 6003 -6004 0
927 -989 -6003 -6004 0
989 -927 -6003 -6004 0
6004 -6003 -927 -989 0
927 989 -6003 6004 0
989 -927 6003 6004 0
927 -989 6003 6004 0
1051 1116 6004 -6005 0
-1051 -1116 6004 -6005 0
1051 -1116 -6004 -6005 0
1116 -1051 -6004 -6005 0
6005 -6004 -1051 -1116 0
1051 1116 -6004 6005 0
1116 -1051 6004 6005 0
1051 -1116 6004 6005 0
1175 1237 6005 -6006 0
-1175 -1237 6005 -6006 0
1175 -1237 -6005 -6006 0
1237 -1175 -6005 -6006 0
6006 -6005 -1175 -1237 0
1175 1237 -6005 6006 0
1237 -1175 6005 6006 0
1175 -1237 6005 6006 0
1302 1361 6006 -6007 0
-1302 -1361 6006 -6007 0
1302 -1361 -6006 -6007 0
1361 -1302 -6006 -6007 0
6007 -6006 -1302 -1361 0
1302 1361 -6006 6007 0
1361 -1302 6006 6007 0
1302 -1361 6006 6007 0
1423 1485 6007 -6008 0
-1423 -1485 6007 -6008 0
1423 -1485 -6007 -6008 0
1485 -1423 -6007 -6008 0
6008 -6007 -1423 -1485 0
1423 1485 -6007 6008 0
1485 -1423 6007 6008 0
1423 -1485 6007 6008 0
26 -88 -6009 0
88 -26 -6009 0
6009 -26 -88 0
6009 26 88 0
150 215 6009 -6010 0
-150 -215 6009 -6010 0
150 -215 -6009 -6010 0
215 -150 -6009 -6010 0
6010 -6009 -150 -215 0
150 215 -6009 6010 0
215 -150 6009 6010 0
150 -215 6009 6010 0
274 339 6010 -6011 0
-274 -339 6010 -6011 0
274 -339 -6010 -6011 0
339 -274 -6010 -6011 0
6011 -6010 -274 -339 0
274 339 -6010 6011 0
339 -274 6010 6011 0
274 -339 6010 6011 0
401 463 6011 -6012 0
-401 -463 6011 -6012 0
401 -463 -6011 -6012 0
463 -401 -6011 -6012 0
6012 -6011 -401 -463 0
401 463 -6011 6012 0
463 -401 6011 6012 0
401 -463 6011 6012 0
513 587 6012 -6013 0
-513 -587 6012 -6013 0
513 -587 -6012 -6013 0
587 -513 -6012 -6013 0
6013 -6012 -513 -587 0
513 587 -6012 6013 0
587 -513 6012 6013 0
513 -587 6012 6013 0
649 711 6013 -6014 0
-649 -711 6013 -6014 0
649 -711 -6013 -6014 0
711 -649 -6013 -6014 0
6014 -6013 -649 -711 0
649 711 -6013 6014 0
711 -649 6013 6014 0
649 -711 6013 6014 0
773 835 6014 -6015 0
-773 -835 6014 -6015 0
773 -835 -6014 -6015 0
835 -773 -6014 -6015 0
6015 -6014 -773 -835 0
773 835 -6014 6015 0
835 -773 6014 6015 0
773 -835 6014 6015 0
897 959 6015 -6016 0
-897 -959 6015 -6016 0
897 -959 -6015 -6016 0
959 -897 -6015 -6016 0
6016 -6015 -897 -959 0
897 959 -6015 6016 0
959 -897 6015 6016 0
897 -959 6015 6016 0
1018 1083 6016 -6017 0
-1018 -1083 6016 -6017 0
1018 -1083 -6016 -6017 0
1083 -1018 -6016 -6017 0
6017 -6016 -1018 -1083 0
1018 1083 -6016 6017 0
1083 -1018 6016 6017 0
1018 -1083 6016 6017 0
1142 5307 6017 -6018 0
-1142 -5307 6017 -6018 0
1142 -5307 -6017 -6018 0
-1142 5307 -6017 -6018 0
-1142 -5307 -6017 6018 0
1142 5307 -6017 6018 0
-1142 5307 6017 6018 0
1142 -5307 6017 6018 0
1193 1269 6018 -6019 0
-1193 -1269 6018 -6019 0
1193 -1269 -6018 -6019 0
1269 -1193 -6018 -6019 0
6019 -6018 -1193 -1269 0
1193 1269 -6018 6019 0
1269 -1193 6018 6019 0
1193 -1269 6018 6019 0
1331 1390 6019 -6020 0
-1331 -1390 6019 -6020 0
1331 -1390 -6019 -6020 0
1390 -1331 -6019 -6020 0
6020 -6019 -1331 -1390 0
1331 1390 -6019 6020 0
1390 -1331 6019 6020 0
1331 -1390 6019 6020 0
1455 6008 6020 -6021 0
-1455 -6008 6020 -6021 0
1455 -6008 -6020 -6021 0
-1455 6008 -6020 -6021 0
-1455 -6008 -6020 6021 0
1455 6008 -6020 6021 0
-1455 6008 6020 6021 0
1455 -6008 6020 6021 0
1503 1579 6021 -6022 0
-1503 -1579 6021 -6022 0
1503 -1579 -6021 -6022 0
1579 -1503 -6021 -6022 0
6022 -6021 -1503 -1579 0
1503 1579 -6021 6022 0
1579 -1503 6021 6022 0
1503 -1579 6021 6022 0
1641 1703 6022 -6023 0
-1641 -1703 6022 -6023 0
1641 -1703 -6022 -6023 0
1703 -1641 -6022 -6023 0
6023 -6022 -1641 -1703 0
1641 1703 -6022 6023 0
1703 -1641 6022 6023 0
1641 -1703 6022 6023 0
1765 1827 6023 -6024 0
-1765 -1827 6023 -6024 0
1765 -1827 -6023 -6024 0
1827 -1765 -6023 -6024 0
6024 -6023 -1765 -1827 0
1765 1827 -6023 6024 0
1827 -1765 6023 6024 0
1765 -1827 6023 6024 0
1889 1951 6024 -6025 0
-1889 -1951 6024 -6025 0
1889 -1951 -6024 -6025 0
1951 -1889 -6024 -6025 0
6025 -6024 -1889 -1951 0
1889 1951 -6024 6025 0
1951 -1889 6024 6025 0
1889 -1951 6024 6025 0
2058 2120 6025 -6026 0
-2058 -2120 6025 -6026 0
2058 -2120 -6025 -6026 0
2120 -2058 -6025 -6026 0
6026 -6025 -2058 -2120 0
2058 2120 -6025 6026 0
2120 -2058 6025 6026 0
2058 -2120 6025 6026 0
2182 2247 6026 -6027 0
-2182 -2247 6026 -6027 0
2182 -2247 -6026 -6027 0
2247 -2182 -6026 -6027 0
6027 -6026 -2182 -2247 0
2182 2247 -6026 6027 0
2247 -2182 6026 6027 0
2182 -2247 6026 6027 0
2306 2371 6027 -6028 0
-2306 -2371 6027 -6028 0
2306 -2371 -6027 -6028 0
2371 -2306 -6027 -6028 0
6028 -6027 -2306 -2371 0
2306 2371 -6027 6028 0
2371 -2306 6027 6028 0
2306 -2371 6027 6028 0
2433 2495 6028 -6029 0
-2433 -2495 6028 -6029 0
2433 -2495 -6028 -6029 0
2495 -2433 -6028 -6029 0
6029 -6028 -2433 -2495 0
2433 2495 -6028 6029 0
2495 -2433 6028 6029 0
2433 -2495 6028 6029 0
2035 -2079 -6030 0
2079 -2035 -6030 0
-2035 -2079 6030 0
2035 2079 6030 0
2141 2203 6030 -6031 0
-2141 -2203 6030 -6031 0
2141 -2203 -6030 -6031 0
2203 -2141 -6030 -6031 0
6031 -6030 -2141 -2203 0
2141 2203 -6030 6031 0
2203 -2141 6030 6031 0
2141 -2203 6030 6031 0
2268 2327 6031 -6032 0
-2268 -2327 6031 -6032 0
2268 -2327 -6031 -6032 0
2327 -2268 -6031 -6032 0
6032 -6031 -2268 -2327 0
2268 2327 -6031 6032 0
2327 -2268 6031 6032 0
2268 -2327 6031 6032 0
2389 2454 6032 -6033 0
-2389 -2454 6032 -6033 0
2389 -2454 -6032 -6033 0
2454 -2389 -6032 -6033 0
6033 -6032 -2389 -2454 0
2389 2454 -6032 6033 0
2454 -2389 6032 6033 0
2389 -2454 6032 6033 0
2513 6029 6033 -6034 0
-2513 -6029 6033 -6034 0
2513 -6029 -6033 -6034 0
-2513 6029 -6033 -6034 0
-2513 -6029 -6033 6034 0
2513 6029 -6033 6034 0
-2513 6029 6033 6034 0
2513 -6029 6033 6034 0
2543 5991 6034 -6035 0
-2543 -5991 6034 -6035 0
2543 -5991 -6034 -6035 0
-2543 5991 -6034 -6035 0
-2543 -5991 -6034 6035 0
2543 5991 -6034 6035 0
-2543 5991 6034 6035 0
2543 -5991 6034 6035 0
2605 5996 6035 -6036 0
-2605 -5996 6035 -6036 0
2605 -5996 -6035 -6036 0
-2605 5996 -6035 -6036 0
-2605 -5996 -6035 6036 0
2605 5996 -6035 6036 0
-2605 5996 6035 6036 0
2605 -5996 6035 6036 0
-1505 6008 -6037 0
1505 -6008 -6037 0
6037 -6008 -1505 0
1505 6008 6037 0
35 97 159 -6038 0
35 -97 -159 -6038 0
97 -35 -159 -6038 0
159 -35 -97 -6038 0
6038 -35 -97 -159 0
97 159 -35 6038 0
35 159 -97 6038 0
6038 35 97 -159 0
224 283 6038 -6039 0
-224 -283 6038 -6039 0
224 -283 -6038 -6039 0
283 -224 -6038 -6039 0
6039 -6038 -224 -283 0
224 283 -6038 6039 0
283 -224 6038 6039 0
224 -283 6038 6039 0
345 410 6039 -6040 0
-345 -410 6039 -6040 0
345 -410 -6039 -6040 0
410 -345 -6039 -6040 0
6040 -6039 -345 -410 0
345 410 -6039 6040 0
410 -345 6039 6040 0
345 -410 6039 6040 0
469 531 6040 -6041 0
-469 -531 6040 -6041 0
469 -531 -6040 -6041 0
531 -469 -6040 -6041 0
6041 -6040 -469 -531 0
469 531 -6040 6041 0
531 -469 6040 6041 0
469 -531 6040 6041 0
596 655 6041 -6042 0
-596 -655 6041 -6042 0
596 -655 -6041 -6042 0
655 -596 -6041 -6042 0
-596 -655 -6041 6042 0
596 655 -6041 6042 0
655 -596 6041 6042 0
596 -655 6041 6042 0
-699 6042 -6043 0
699 -6042 -6043 0
6043 -6042 -699 0
699 6042 6043 0
782 844 6043 -6044 0
-782 -844 6043 -6044 0
782 -844 -6043 -6044 0
844 -782 -6043 -6044 0
6044 -6043 -782 -844 0
782 844 -6043 6044 0
844 -782 6043 6044 0
782 -844 6043 6044 0
906 968 6044 -6045 0
-906 -968 6044 -6045 0
906 -968 -6044 -6045 0
968 -906 -6044 -6045 0
6045 -6044 -906 -968 0
906 968 -6044 6045 0
968 -906 6044 6045 0
906 -968 6044 6045 0
1027 1092 6045 -6046 0
-1027 -1092 6045 -6046 0
1027 -1092 -6045 -6046 0
1092 -1027 -6045 -6046 0
6046 -6045 -1027 -1092 0
1027 1092 -6045 6046 0
1092 -1027 6045 6046 0
1027 -1092 6045 6046 0
1151 1213 6046 -6047 0
-1151 -1213 6046 -6047 0
1151 -1213 -6046 -6047 0
1213 -1151 -6046 -6047 0
6047 -6046 -1151 -1213 0
1151 1213 -6046 6047 0
1213 -1151 6046 6047 0
1151 -1213 6046 6047 0
1278 1337 6047 -6048 0
-1278 -1337 6047 -6048 0
1278 -1337 -6047 -6048 0
1337 -1278 -6047 -6048 0
6048 -6047 -1278 -1337 0
1278 1337 -6047 6048 0
1337 -1278 6047 6048 0
1278 -1337 6047 6048 0
1399 1461 6048 -6049 0
-1399 -1461 6048 -6049 0
1399 -1461 -6048 -6049 0
1461 -1399 -6048 -6049 0
6049 -6048 -1399 -1461 0
1399 1461 -6048 6049 0
1461 -1399 6048 6049 0
1399 -1461 6048 6049 0
1523 6037 6049 -6050 0
-1523 -6037 6049 -6050 0
1523 -6037 -6049 -6050 0
-1523 6037 -6049 -6050 0
-1523 -6037 -6049 6050 0
1523 6037 -6049 6050 0
-1523 6037 6049 6050 0
1523 -6037 6049 6050 0
1565 1647 6050 -6051 0
-1565 -1647 6050 -6051 0
1565 -1647 -6050 -6051 0
1647 -1565 -6050 -6051 0
6051 -6050 -1565 -1647 0
1565 1647 -6050 6051 0
1647 -1565 6050 6051 0
1565 -1647 6050 6051 0
1712 1771 6051 -6052 0
-1712 -1771 6051 -6052 0
1712 -1771 -6051 -6052 0
1771 -1712 -6051 -6052 0
6052 -6051 -1712 -1771 0
1712 1771 -6051 6052 0
1771 -1712 6051 6052 0
1712 -1771 6051 6052 0
1836 1898 6052 -6053 0
-1836 -1898 6052 -6053 0
1836 -1898 -6052 -6053 0
1898 -1836 -6052 -6053 0
6053 -6052 -1836 -1898 0
1836 1898 -6052 6053 0
1898 -1836 6052 6053 0
1836 -1898 6052 6053 0
1960 2067 6053 -6054 0
-1960 -2067 6053 -6054 0
1960 -2067 -6053 -6054 0
2067 -1960 -6053 -6054 0
6054 -6053 -1960 -2067 0
1960 2067 -6053 6054 0
2067 -1960 6053 6054 0
1960 -2067 6053 6054 0
2129 2191 6054 -6055 0
-2129 -2191 6054 -6055 0
2129 -2191 -6054 -6055 0
2191 -2129 -6054 -6055 0
6055 -6054 -2129 -2191 0
2129 2191 -6054 6055 0
2191 -2129 6054 6055 0
2129 -2191 6054 6055 0
2256 2315 6055 -6056 0
-2256 -2315 6055 -6056 0
2256 -2315 -6055 -6056 0
2315 -2256 -6055 -6056 0
6056 -6055 -2256 -2315 0
2256 2315 -6055 6056 0
2315 -2256 6055 6056 0
2256 -2315 6055 6056 0
2377 2442 6056 -6057 0
-2377 -2442 6056 -6057 0
2377 -2442 -6056 -6057 0
2442 -2377 -6056 -6057 0
6057 -6056 -2377 -2442 0
2377 2442 -6056 6057 0
2442 -2377 6056 6057 0
2377 -2442 6056 6057 0
2501 2563 6057 -6058 0
-2501 -2563 6057 -6058 0
2501 -2563 -6057 -6058 0
2563 -2501 -6057 -6058 0
6058 -6057 -2501 -2563 0
2501 2563 -6057 6058 0
2563 -2501 6057 6058 0
2501 -2563 6057 6058 0
2628 2687 6058 -6059 0
-2628 -2687 6058 -6059 0
2628 -2687 -6058 -6059 0
2687 -2628 -6058 -6059 0
-2628 -2687 -6058 6059 0
2628 2687 -6058 6059 0
2687 -2628 6058 6059 0
2628 -2687 6058 6059 0
2667 6036 6059 -6060 0
-2667 -6036 6059 -6060 0
-2667 6036 -6059 -6060 0
2667 -6036 -6059 -6060 0
-2667 -6036 -6059 6060 0
2667 6036 -6059 6060 0
2667 -6036 6059 6060 0
-2667 6036 6059 6060 0
2729 5993 6060 -6061 0
-2729 -5993 6060 -6061 0
2729 -5993 -6060 -6061 0
-2729 5993 -6060 -6061 0
-2729 -5993 -6060 6061 0
2729 5993 -6060 6061 0
-2729 5993 6060 6061 0
2729 -5993 6060 6061 0
2791 5986 6061 -6062 0
-2791 -5986 6061 -6062 0
2791 -5986 -6061 -6062 0
-2791 5986 -6061 -6062 0
-2791 -5986 -6061 6062 0
2791 5986 -6061 6062 0
-2791 5986 6061 6062 0
2791 -5986 6061 6062 0
2853 2950 6062 -6063 0
-2853 -2950 6062 -6063 0
2853 -2950 -6062 -6063 0
2950 -2853 -6062 -6063 0
6063 -6062 -2853 -2950 0
2853 2950 -6062 6063 0
2950 -2853 6062 6063 0
2853 -2950 6062 6063 0
3012 3074 6063 -6064 0
-3012 -3074 6063 -6064 0
3012 -3074 -6063 -6064 0
3074 -3012 -6063 -6064 0
6064 -6063 -3012 -3074 0
3012 3074 -6063 6064 0
3074 -3012 6063 6064 0
3012 -3074 6063 6064 0
3139 3198 6064 -6065 0
-3139 -3198 6064 -6065 0
3139 -3198 -6064 -6065 0
3198 -3139 -6064 -6065 0
6065 -6064 -3139 -3198 0
3139 3198 -6064 6065 0
3198 -3139 6064 6065 0
3139 -3198 6064 6065 0
3260 3325 6065 -6066 0
-3260 -3325 6065 -6066 0
3260 -3325 -6065 -6066 0
3325 -3260 -6065 -6066 0
6066 -6065 -3260 -3325 0
3260 3325 -6065 6066 0
3325 -3260 6065 6066 0
3260 -3325 6065 6066 0
3384 3446 6066 -6067 0
-3384 -3446 6066 -6067 0
3384 -3446 -6066 -6067 0
3446 -3384 -6066 -6067 0
6067 -6066 -3384 -3446 0
3384 3446 -6066 6067 0
3446 -3384 6066 6067 0
3384 -3446 6066 6067 0
3508 3570 6067 -6068 0
-3508 -3570 6067 -6068 0
3508 -3570 -6067 -6068 0
3570 -3508 -6067 -6068 0
6068 -6067 -3508 -3570 0
3508 3570 -6067 6068 0
3570 -3508 6067 6068 0
3508 -3570 6067 6068 0
3632 3694 6068 -6069 0
-3632 -3694 6068 -6069 0
3632 -3694 -6068 -6069 0
3694 -3632 -6068 -6069 0
6069 -6068 -3632 -3694 0
3632 3694 -6068 6069 0
3694 -3632 6068 6069 0
3632 -3694 6068 6069 0
3759 3818 6069 -6070 0
-3759 -3818 6069 -6070 0
3759 -3818 -6069 -6070 0
3818 -3759 -6069 -6070 0
6070 -6069 -3759 -3818 0
3759 3818 -6069 6070 0
3818 -3759 6069 6070 0
3759 -3818 6069 6070 0
3880 3945 6070 -6071 0
-3880 -3945 6070 -6071 0
3880 -3945 -6070 -6071 0
3945 -3880 -6070 -6071 0
6071 -6070 -3880 -3945 0
3880 3945 -6070 6071 0
3945 -3880 6070 6071 0
3880 -3945 6070 6071 0
12 -74 -6072 0
74 -12 -6072 0
-12 -74 6072 0
12 74 6072 0
136 198 6072 -6073 0
-136 -198 6072 -6073 0
136 -198 -6072 -6073 0
198 -136 -6072 -6073 0
6073 -6072 -136 -198 0
136 198 -6072 6073 0
198 -136 6072 6073 0
136 -198 6072 6073 0
260 322 6073 -6074 0
-260 -322 6073 -6074 0
260 -322 -6073 -6074 0
322 -260 -6073 -6074 0
6074 -6073 -260 -322 0
260 322 -6073 6074 0
322 -260 6073 6074 0
260 -322 6073 6074 0
384 446 6074 -6075 0
-384 -446 6074 -6075 0
384 -446 -6074 -6075 0
446 -384 -6074 -6075 0
6075 -6074 -384 -446 0
384 446 -6074 6075 0
446 -384 6074 6075 0
384 -446 6074 6075 0
508 570 6075 -6076 0
-508 -570 6075 -6076 0
508 -570 -6075 -6076 0
570 -508 -6075 -6076 0
6076 -6075 -508 -570 0
508 570 -6075 6076 0
570 -508 6075 6076 0
508 -570 6075 6076 0
-575 6076 -6077 0
575 -6076 -6077 0
6077 -6076 -575 0
575 6076 6077 0
694 756 6077 -6078 0
-694 -756 6077 -6078 0
694 -756 -6077 -6078 0
756 -694 -6077 -6078 0
6078 -6077 -694 -756 0
694 756 -6077 6078 0
756 -694 6077 6078 0
694 -756 6077 6078 0
3 47 109 -6079 0
3 -47 -109 -6079 0
47 -3 -109 -6079 0
109 -3 -47 -6079 0
-3 -47 -109 6079 0
47 109 -3 6079 0
3 109 -47 6079 0
3 47 -109 6079 0
171 236 6079 -6080 0
-171 -236 6079 -6080 0
171 -236 -6079 -6080 0
236 -171 -6079 -6080 0
6080 -6079 -171 -236 0
171 236 -6079 6080 0
236 -171 6079 6080 0
171 -236 6079 6080 0
295 357 6080 -6081 0
-295 -357 6080 -6081 0
295 -357 -6080 -6081 0
357 -295 -6080 -6081 0
6081 -6080 -295 -357 0
295 357 -6080 6081 0
357 -295 6080 6081 0
295 -357 6080 6081 0
422 481 6081 -6082 0
-422 -481 6081 -6082 0
422 -481 -6081 -6082 0
481 -422 -6081 -6082 0
6082 -6081 -422 -481 0
422 481 -6081 6082 0
481 -422 6081 6082 0
422 -481 6081 6082 0
511 6012 6082 -6083 0
-511 -6012 6082 -6083 0
-511 6012 -6082 -6083 0
511 -6012 -6082 -6083 0
-511 -6012 -6082 6083 0
511 6012 -6082 6083 0
511 -6012 6082 6083 0
-511 6012 6082 6083 0
573 6076 6083 -6084 0
-573 6076 -6083 -6084 0
-573 -6076 6083 -6084 0
573 -6076 -6083 -6084 0
6084 -6076 -6083 -573 0
573 -6076 6083 6084 0
573 6076 -6083 6084 0
-573 6076 6083 6084 0
635 5816 6084 -6085 0
-635 -5816 6084 -6085 0
-635 5816 -6084 -6085 0
635 -5816 -6084 -6085 0
-635 -5816 -6084 6085 0
635 5816 -6084 6085 0
635 -5816 6084 6085 0
-635 5816 6084 6085 0
697 6042 6085 -6086 0
-697 -6042 6085 -6086 0
-697 6042 -6085 -6086 0
697 -6042 -6085 -6086 0
-697 -6042 -6085 6086 0
697 6042 -6085 6086 0
697 -6042 6085 6086 0
-697 6042 6085 6086 0
759 6078 6086 -6087 0
-759 -6078 6086 -6087 0
-759 6078 -6086 -6087 0
759 -6078 -6086 -6087 0
-759 -6078 -6086 6087 0
759 6078 -6086 6087 0
759 -6078 6086 6087 0
-759 6078 6086 6087 0
821 5969 6087 -6088 0
-821 -5969 6087 -6088 0
-821 5969 -6087 -6088 0
821 -5969 -6087 -6088 0
-821 -5969 -6087 6088 0
821 5969 -6087 6088 0
821 -5969 6087 6088 0
-821 5969 6087 6088 0
918 980 6088 -6089 0
-918 -980 6088 -6089 0
918 -980 -6088 -6089 0
980 -918 -6088 -6089 0
6089 -6088 -918 -980 0
918 980 -6088 6089 0
980 -918 6088 6089 0
918 -980 6088 6089 0
1042 1107 6089 -6090 0
-1042 -1107 6089 -6090 0
1042 -1107 -6089 -6090 0
1107 -1042 -6089 -6090 0
6090 -6089 -1042 -1107 0
1042 1107 -6089 6090 0
1107 -1042 6089 6090 0
1042 -1107 6089 6090 0
1166 1228 6090 -6091 0
-1166 -1228 6090 -6091 0
1166 -1228 -6090 -6091 0
1228 -1166 -6090 -6091 0
6091 -6090 -1166 -1228 0
1166 1228 -6090 6091 0
1228 -1166 6090 6091 0
1166 -1228 6090 6091 0
1293 1352 6091 -6092 0
-1293 -1352 6091 -6092 0
1293 -1352 -6091 -6092 0
1352 -1293 -6091 -6092 0
6092 -6091 -1293 -1352 0
1293 1352 -6091 6092 0
1352 -1293 6091 6092 0
1293 -1352 6091 6092 0
1414 1476 6092 -6093 0
-1414 -1476 6092 -6093 0
1414 -1476 -6092 -6093 0
1476 -1414 -6092 -6093 0
6093 -6092 -1414 -1476 0
1414 1476 -6092 6093 0
1476 -1414 6092 6093 0
1414 -1476 6092 6093 0
1538 1600 6093 -6094 0
-1538 -1600 6093 -6094 0
1538 -1600 -6093 -6094 0
1600 -1538 -6093 -6094 0
6094 -6093 -1538 -1600 0
1538 1600 -6093 6094 0
1600 -1538 6093 6094 0
1538 -1600 6093 6094 0
1662 1727 6094 -6095 0
-1662 -1727 6094 -6095 0
1662 -1727 -6094 -6095 0
1727 -1662 -6094 -6095 0
6095 -6094 -1662 -1727 0
1662 1727 -6094 6095 0
1727 -1662 6094 6095 0
1662 -1727 6094 6095 0
1786 1848 6095 -6096 0
-1786 -1848 6095 -6096 0
1786 -1848 -6095 -6096 0
1848 -1786 -6095 -6096 0
6096 -6095 -1786 -1848 0
1786 1848 -6095 6096 0
1848 -1786 6095 6096 0
1786 -1848 6095 6096 0
1913 1972 6096 -6097 0
-1913 -1972 6096 -6097 0
1913 -1972 -6096 -6097 0
1972 -1913 -6096 -6097 0
6097 -6096 -1913 -1972 0
1913 1972 -6096 6097 0
1972 -1913 6096 6097 0
1913 -1972 6096 6097 0
4004 6071 6097 0
6097 -6071 -4004 0
-4004 6071 -6097 0
4004 -6071 -6097 0
7 58 120 -6098 0
7 -58 -120 -6098 0
58 -7 -120 -6098 0
120 -7 -58 -6098 0
-7 -58 -120 6098 0
58 120 -7 6098 0
7 120 -58 6098 0
7 58 -120 6098 0
182 247 6098 -6099 0
-182 -247 6098 -6099 0
182 -247 -6098 -6099 0
247 -182 -6098 -6099 0
6099 -6098 -182 -247 0
182 247 -6098 6099 0
247 -182 6098 6099 0
182 -247 6098 6099 0
306 368 6099 -6100 0
-306 -368 6099 -6100 0
306 -368 -6099 -6100 0
368 -306 -6099 -6100 0
6100 -6099 -306 -368 0
306 368 -6099 6100 0
368 -306 6099 6100 0
306 -368 6099 6100 0
433 492 6100 -6101 0
-433 -492 6100 -6101 0
433 -492 -6100 -6101 0
492 -433 -6100 -6101 0
6101 -6100 -433 -492 0
433 492 -6100 6101 0
492 -433 6100 6101 0
433 -492 6100 6101 0
554 619 6101 -6102 0
-554 -619 6101 -6102 0
554 -619 -6101 -6102 0
619 -554 -6101 -6102 0
6102 -6101 -554 -619 0
554 619 -6101 6102 0
619 -554 6101 6102 0
554 -619 6101 6102 0
678 740 6102 -6103 0
-678 -740 6102 -6103 0
678 -740 -6102 -6103 0
740 -678 -6102 -6103 0
6103 -6102 -678 -740 0
678 740 -6102 6103 0
740 -678 6102 6103 0
678 -740 6102 6103 0
805 864 6103 -6104 0
-805 -864 6103 -6104 0
805 -864 -6103 -6104 0
864 -805 -6103 -6104 0
6104 -6103 -805 -864 0
805 864 -6103 6104 0
864 -805 6103 6104 0
805 -864 6103 6104 0
926 988 6104 -6105 0
-926 -988 6104 -6105 0
926 -988 -6104 -6105 0
988 -926 -6104 -6105 0
6105 -6104 -926 -988 0
926 988 -6104 6105 0
988 -926 6104 6105 0
926 -988 6104 6105 0
1050 1115 6105 -6106 0
-1050 -1115 6105 -6106 0
1050 -1115 -6105 -6106 0
1115 -1050 -6105 -6106 0
6106 -6105 -1050 -1115 0
1050 1115 -6105 6106 0
1115 -1050 6105 6106 0
1050 -1115 6105 6106 0
1174 1236 6106 -6107 0
-1174 -1236 6106 -6107 0
1174 -1236 -6106 -6107 0
1236 -1174 -6106 -6107 0
6107 -6106 -1174 -1236 0
1174 1236 -6106 6107 0
1236 -1174 6106 6107 0
1174 -1236 6106 6107 0
1301 1360 6107 -6108 0
-1301 -1360 6107 -6108 0
1301 -1360 -6107 -6108 0
1360 -1301 -6107 -6108 0
6108 -6107 -1301 -1360 0
1301 1360 -6107 6108 0
1360 -1301 6107 6108 0
1301 -1360 6107 6108 0
1422 1484 6108 -6109 0
-1422 -1484 6108 -6109 0
1422 -1484 -6108 -6109 0
1484 -1422 -6108 -6109 0
6109 -6108 -1422 -1484 0
1422 1484 -6108 6109 0
1484 -1422 6108 6109 0
1422 -1484 6108 6109 0
1504 5636 6109 -6110 0
-1504 -5636 6109 -6110 0
-1504 5636 -6109 -6110 0
1504 -5636 -6109 -6110 0
-1504 -5636 -6109 6110 0
1504 5636 -6109 6110 0
1504 -5636 6109 6110 0
-1504 5636 6109 6110 0
34 -96 -6111 0
96 -34 -6111 0
6111 -34 -96 0
6111 34 96 0
158 223 6111 -6112 0
-158 -223 6111 -6112 0
158 -223 -6111 -6112 0
223 -158 -6111 -6112 0
6112 -6111 -158 -223 0
158 223 -6111 6112 0
223 -158 6111 6112 0
158 -223 6111 6112 0
282 344 6112 -6113 0
-282 -344 6112 -6113 0
282 -344 -6112 -6113 0
344 -282 -6112 -6113 0
6113 -6112 -282 -344 0
282 344 -6112 6113 0
344 -282 6112 6113 0
282 -344 6112 6113 0
409 468 6113 -6114 0
-409 -468 6113 -6114 0
409 -468 -6113 -6114 0
468 -409 -6113 -6114 0
6114 -6113 -409 -468 0
409 468 -6113 6114 0
468 -409 6113 6114 0
409 -468 6113 6114 0
530 595 6114 -6115 0
-530 -595 6114 -6115 0
530 -595 -6114 -6115 0
595 -530 -6114 -6115 0
6115 -6114 -530 -595 0
530 595 -6114 6115 0
595 -530 6114 6115 0
530 -595 6114 6115 0
654 5388 6115 -6116 0
-654 -5388 6115 -6116 0
654 -5388 -6115 -6116 0
-654 5388 -6115 -6116 0
-654 -5388 -6115 6116 0
654 5388 -6115 6116 0
-654 5388 6115 6116 0
654 -5388 6115 6116 0
698 781 6116 -6117 0
-698 -781 6116 -6117 0
698 -781 -6116 -6117 0
781 -698 -6116 -6117 0
6117 -6116 -698 -781 0
698 781 -6116 6117 0
781 -698 6116 6117 0
698 -781 6116 6117 0
843 905 6117 -6118 0
-843 -905 6117 -6118 0
843 -905 -6117 -6118 0
905 -843 -6117 -6118 0
6118 -6117 -843 -905 0
843 905 -6117 6118 0
905 -843 6117 6118 0
843 -905 6117 6118 0
967 1026 6118 -6119 0
-967 -1026 6118 -6119 0
967 -1026 -6118 -6119 0
1026 -967 -6118 -6119 0
6119 -6118 -967 -1026 0
967 1026 -6118 6119 0
1026 -967 6118 6119 0
967 -1026 6118 6119 0
1091 1150 6119 -6120 0
-1091 -1150 6119 -6120 0
1091 -1150 -6119 -6120 0
1150 -1091 -6119 -6120 0
6120 -6119 -1091 -1150 0
1091 1150 -6119 6120 0
1150 -1091 6119 6120 0
1091 -1150 6119 6120 0
1212 1277 6120 -6121 0
-1212 -1277 6120 -6121 0
1212 -1277 -6120 -6121 0
1277 -1212 -6120 -6121 0
6121 -6120 -1212 -1277 0
1212 1277 -6120 6121 0
1277 -1212 6120 6121 0
1212 -1277 6120 6121 0
1336 1398 6121 -6122 0
-1336 -1398 6121 -6122 0
1336 -1398 -6121 -6122 0
1398 -1336 -6121 -6122 0
6122 -6121 -1336 -1398 0
1336 1398 -6121 6122 0
1398 -1336 6121 6122 0
1336 -1398 6121 6122 0
1460 1522 6122 -6123 0
-1460 -1522 6122 -6123 0
1460 -1522 -6122 -6123 0
1522 -1460 -6122 -6123 0
6123 -6122 -1460 -1522 0
1460 1522 -6122 6123 0
1522 -1460 6122 6123 0
1460 -1522 6122 6123 0
1566 6110 6123 -6124 0
-1566 -6110 6123 -6124 0
-1566 6110 -6123 -6124 0
1566 -6110 -6123 -6124 0
-1566 -6110 -6123 6124 0
1566 6110 -6123 6124 0
1566 -6110 6123 6124 0
-1566 6110 6123 6124 0
1673 1738 6124 -6125 0
-1673 -1738 6124 -6125 0
1673 -1738 -6124 -6125 0
1738 -1673 -6124 -6125 0
6125 -6124 -1673 -1738 0
1673 1738 -6124 6125 0
1738 -1673 6124 6125 0
1673 -1738 6124 6125 0
1797 1859 6125 -6126 0
-1797 -1859 6125 -6126 0
1797 -1859 -6125 -6126 0
1859 -1797 -6125 -6126 0
6126 -6125 -1797 -1859 0
1797 1859 -6125 6126 0
1859 -1797 6125 6126 0
1797 -1859 6125 6126 0
1924 1983 6126 -6127 0
-1924 -1983 6126 -6127 0
1924 -1983 -6126 -6127 0
1983 -1924 -6126 -6127 0
6127 -6126 -1924 -1983 0
1924 1983 -6126 6127 0
1983 -1924 6126 6127 0
1924 -1983 6126 6127 0
-1564 6123 -6128 0
1564 -6123 -6128 0
6128 -6123 -1564 0
1564 6123 6128 0
1646 1711 6128 -6129 0
-1646 -1711 6128 -6129 0
1646 -1711 -6128 -6129 0
1711 -1646 -6128 -6129 0
6129 -6128 -1646 -1711 0
1646 1711 -6128 6129 0
1711 -1646 6128 6129 0
1646 -1711 6128 6129 0
1770 1835 6129 -6130 0
-1770 -1835 6129 -6130 0
1770 -1835 -6129 -6130 0
1835 -1770 -6129 -6130 0
6130 -6129 -1770 -1835 0
1770 1835 -6129 6130 0
1835 -1770 6129 6130 0
1770 -1835 6129 6130 0
1897 1959 6130 -6131 0
-1897 -1959 6130 -6131 0
1897 -1959 -6130 -6131 0
1959 -1897 -6130 -6131 0
6131 -6130 -1897 -1959 0
1897 1959 -6130 6131 0
1959 -1897 6130 6131 0
1897 -1959 6130 6131 0
2066 2128 6131 -6132 0
-2066 -2128 6131 -6132 0
2066 -2128 -6131 -6132 0
2128 -2066 -6131 -6132 0
6132 -6131 -2066 -2128 0
2066 2128 -6131 6132 0
2128 -2066 6131 6132 0
2066 -2128 6131 6132 0
2190 2255 6132 -6133 0
-2190 -2255 6132 -6133 0
2190 -2255 -6132 -6133 0
2255 -2190 -6132 -6133 0
6133 -6132 -2190 -2255 0
2190 2255 -6132 6133 0
2255 -2190 6132 6133 0
2190 -2255 6132 6133 0
2314 2376 6133 -6134 0
-2314 -2376 6133 -6134 0
2314 -2376 -6133 -6134 0
2376 -2314 -6133 -6134 0
6134 -6133 -2314 -2376 0
2314 2376 -6133 6134 0
2376 -2314 6133 6134 0
2314 -2376 6133 6134 0
2441 2500 6134 -6135 0
-2441 -2500 6134 -6135 0
2441 -2500 -6134 -6135 0
2500 -2441 -6134 -6135 0
6135 -6134 -2441 -2500 0
2441 2500 -6134 6135 0
2500 -2441 6134 6135 0
2441 -2500 6134 6135 0
2562 2627 6135 -6136 0
-2562 -2627 6135 -6136 0
2562 -2627 -6135 -6136 0
2627 -2562 -6135 -6136 0
6136 -6135 -2562 -2627 0
2562 2627 -6135 6136 0
2627 -2562 6135 6136 0
2562 -2627 6135 6136 0
2686 5498 6136 -6137 0
-2686 -5498 6136 -6137 0
2686 -5498 -6136 -6137 0
-2686 5498 -6136 -6137 0
-2686 -5498 -6136 6137 0
2686 5498 -6136 6137 0
-2686 5498 6136 6137 0
2686 -5498 6136 6137 0
2730 2813 6137 -6138 0
-2730 -2813 6137 -6138 0
2730 -2813 -6137 -6138 0
2813 -2730 -6137 -6138 0
6138 -6137 -2730 -2813 0
2730 2813 -6137 6138 0
2813 -2730 6137 6138 0
2730 -2813 6137 6138 0
2875 2937 6138 -6139 0
-2875 -2937 6138 -6139 0
2875 -2937 -6138 -6139 0
2937 -2875 -6138 -6139 0
6139 -6138 -2875 -2937 0
2875 2937 -6138 6139 0
2937 -2875 6138 6139 0
2875 -2937 6138 6139 0
2999 3058 6139 -6140 0
-2999 -3058 6139 -6140 0
2999 -3058 -6139 -6140 0
3058 -2999 -6139 -6140 0
6140 -6139 -2999 -3058 0
2999 3058 -6139 6140 0
3058 -2999 6139 6140 0
2999 -3058 6139 6140 0
3123 3182 6140 -6141 0
-3123 -3182 6140 -6141 0
3123 -3182 -6140 -6141 0
3182 -3123 -6140 -6141 0
6141 -6140 -3123 -3182 0
3123 3182 -6140 6141 0
3182 -3123 6140 6141 0
3123 -3182 6140 6141 0
3244 3309 6141 -6142 0
-3244 -3309 6141 -6142 0
3244 -3309 -6141 -6142 0
3309 -3244 -6141 -6142 0
6142 -6141 -3244 -3309 0
3244 3309 -6141 6142 0
3309 -3244 6141 6142 0
3244 -3309 6141 6142 0
3368 3430 6142 -6143 0
-3368 -3430 6142 -6143 0
3368 -3430 -6142 -6143 0
3430 -3368 -6142 -6143 0
6143 -6142 -3368 -3430 0
3368 3430 -6142 6143 0
3430 -3368 6142 6143 0
3368 -3430 6142 6143 0
3492 3554 6143 -6144 0
-3492 -3554 6143 -6144 0
3492 -3554 -6143 -6144 0
3554 -3492 -6143 -6144 0
6144 -6143 -3492 -3554 0
3492 3554 -6143 6144 0
3554 -3492 6143 6144 0
3492 -3554 6143 6144 0
-3224 5650 -6145 0
3224 -5650 -6145 0
6145 -5650 -3224 0
3224 5650 6145 0
3300 3362 6145 -6146 0
-3300 -3362 6145 -6146 0
3300 -3362 -6145 -6146 0
3362 -3300 -6145 -6146 0
6146 -6145 -3300 -3362 0
3300 3362 -6145 6146 0
3362 -3300 6145 6146 0
3300 -3362 6145 6146 0
3421 3486 6146 -6147 0
-3421 -3486 6146 -6147 0
3421 -3486 -6146 -6147 0
3486 -3421 -6146 -6147 0
6147 -6146 -3421 -3486 0
3421 3486 -6146 6147 0
3486 -3421 6146 6147 0
3421 -3486 6146 6147 0
2039 -2090 -6148 0
2090 -2039 -6148 0
-2039 -2090 6148 0
2039 2090 6148 0
2152 2214 6148 -6149 0
-2152 -2214 6148 -6149 0
2152 -2214 -6148 -6149 0
2214 -2152 -6148 -6149 0
6149 -6148 -2152 -2214 0
2152 2214 -6148 6149 0
2214 -2152 6148 6149 0
2152 -2214 6148 6149 0
2279 2338 6149 -6150 0
-2279 -2338 6149 -6150 0
2279 -2338 -6149 -6150 0
2338 -2279 -6149 -6150 0
6150 -6149 -2279 -2338 0
2279 2338 -6149 6150 0
2338 -2279 6149 6150 0
2279 -2338 6149 6150 0
2400 2465 6150 -6151 0
-2400 -2465 6150 -6151 0
2400 -2465 -6150 -6151 0
2465 -2400 -6150 -6151 0
6151 -6150 -2400 -2465 0
2400 2465 -6150 6151 0
2465 -2400 6150 6151 0
2400 -2465 6150 6151 0
2524 2586 6151 -6152 0
-2524 -2586 6151 -6152 0
2524 -2586 -6151 -6152 0
2586 -2524 -6151 -6152 0
6152 -6151 -2524 -2586 0
2524 2586 -6151 6152 0
2586 -2524 6151 6152 0
2524 -2586 6151 6152 0
2651 2710 6152 -6153 0
-2651 -2710 6152 -6153 0
2651 -2710 -6152 -6153 0
2710 -2651 -6152 -6153 0
-2651 -2710 -6152 6153 0
2651 2710 -6152 6153 0
2710 -2651 6152 6153 0
2651 -2710 6152 6153 0
2772 2837 6153 -6154 0
-2772 -2837 6153 -6154 0
2772 -2837 -6153 -6154 0
2837 -2772 -6153 -6154 0
6154 -6153 -2772 -2837 0
2772 2837 -6153 6154 0
2837 -2772 6153 6154 0
2772 -2837 6153 6154 0
2896 2958 6154 -6155 0
-2896 -2958 6154 -6155 0
2896 -2958 -6154 -6155 0
2958 -2896 -6154 -6155 0
6155 -6154 -2896 -2958 0
2896 2958 -6154 6155 0
2958 -2896 6154 6155 0
2896 -2958 6154 6155 0
3020 3082 6155 -6156 0
-3020 -3082 6155 -6156 0
3020 -3082 -6155 -6156 0
3082 -3020 -6155 -6156 0
6156 -6155 -3020 -3082 0
3020 3082 -6155 6156 0
3082 -3020 6155 6156 0
3020 -3082 6155 6156 0
3147 3206 6156 -6157 0
-3147 -3206 6156 -6157 0
3147 -3206 -6156 -6157 0
3206 -3147 -6156 -6157 0
6157 -6156 -3147 -3206 0
3147 3206 -6156 6157 0
3206 -3147 6156 6157 0
3147 -3206 6156 6157 0
3268 3333 6157 -6158 0
-3268 -3333 6157 -6158 0
3268 -3333 -6157 -6158 0
3333 -3268 -6157 -6158 0
6158 -6157 -3268 -3333 0
3268 3333 -6157 6158 0
3333 -3268 6157 6158 0
3268 -3333 6157 6158 0
3392 3454 6158 -6159 0
-3392 -3454 6158 -6159 0
3392 -3454 -6158 -6159 0
3454 -3392 -6158 -6159 0
6159 -6158 -3392 -3454 0
3392 3454 -6158 6159 0
3454 -3392 6158 6159 0
3392 -3454 6158 6159 0
3516 6147 6159 -6160 0
-3516 -6147 6159 -6160 0
3516 -6147 -6159 -6160 0
-3516 6147 -6159 -6160 0
-3516 -6147 -6159 6160 0
3516 6147 -6159 6160 0
-3516 6147 6159 6160 0
3516 -6147 6159 6160 0
3536 6144 6160 -6161 0
-3536 -6144 6160 -6161 0
3536 -6144 -6160 -6161 0
-3536 6144 -6160 -6161 0
-3536 -6144 -6160 6161 0
3536 6144 -6160 6161 0
-3536 6144 6160 6161 0
3536 -6144 6160 6161 0
3598 3705 6161 -6162 0
-3598 -3705 6161 -6162 0
3598 -3705 -6161 -6162 0
3705 -3598 -6161 -6162 0
6162 -6161 -3598 -3705 0
3598 3705 -6161 6162 0
3705 -3598 6161 6162 0
3598 -3705 6161 6162 0
3770 3829 6162 -6163 0
-3770 -3829 6162 -6163 0
3770 -3829 -6162 -6163 0
3829 -3770 -6162 -6163 0
6163 -6162 -3770 -3829 0
3770 3829 -6162 6163 0
3829 -3770 6162 6163 0
3770 -3829 6162 6163 0
3891 3956 6163 -6164 0
-3891 -3956 6163 -6164 0
3891 -3956 -6163 -6164 0
3956 -3891 -6163 -6164 0
6164 -6163 -3891 -3956 0
3891 3956 -6163 6164 0
3956 -3891 6163 6164 0
3891 -3956 6163 6164 0
4015 6127 6164 -6165 0
-4015 -6127 6164 -6165 0
4015 -6127 -6164 -6165 0
-4015 6127 -6164 -6165 0
-4015 -6127 -6164 6165 0
4015 6127 -6164 6165 0
-4015 6127 6164 6165 0
4015 -6127 6164 6165 0
-6165 0
-1877 5342 -6166 0
1877 -5342 -6166 0
6166 -5342 -1877 0
1877 5342 6166 0
41 103 165 -6167 0
41 -103 -165 -6167 0
103 -41 -165 -6167 0
165 -41 -103 -6167 0
6167 -41 -103 -165 0
103 165 -41 6167 0
41 165 -103 6167 0
6167 41 103 -165 0
230 289 6167 -6168 0
-230 -289 6167 -6168 0
230 -289 -6167 -6168 0
289 -230 -6167 -6168 0
6168 -6167 -230 -289 0
230 289 -6167 6168 0
289 -230 6167 6168 0
230 -289 6167 6168 0
351 416 6168 -6169 0
-351 -416 6168 -6169 0
351 -416 -6168 -6169 0
416 -351 -6168 -6169 0
6169 -6168 -351 -416 0
351 416 -6168 6169 0
416 -351 6168 6169 0
351 -416 6168 6169 0
475 537 6169 -6170 0
-475 -537 6169 -6170 0
475 -537 -6169 -6170 0
537 -475 -6169 -6170 0
6170 -6169 -475 -537 0
475 537 -6169 6170 0
537 -475 6169 6170 0
475 -537 6169 6170 0
602 661 6170 -6171 0
-602 -661 6170 -6171 0
602 -661 -6170 -6171 0
661 -602 -6170 -6171 0
-602 -661 -6170 6171 0
602 661 -6170 6171 0
661 -602 6170 6171 0
602 -661 6170 6171 0
723 788 6171 -6172 0
-723 -788 6171 -6172 0
723 -788 -6171 -6172 0
788 -723 -6171 -6172 0
6172 -6171 -723 -788 0
723 788 -6171 6172 0
788 -723 6171 6172 0
723 -788 6171 6172 0
847 909 6172 -6173 0
-847 -909 6172 -6173 0
847 -909 -6172 -6173 0
909 -847 -6172 -6173 0
6173 -6172 -847 -909 0
847 909 -6172 6173 0
909 -847 6172 6173 0
847 -909 6172 6173 0
-947 6173 -6174 0
947 -6173 -6174 0
6174 -6173 -947 0
947 6173 6174 0
1033 1098 6174 -6175 0
-1033 -1098 6174 -6175 0
1033 -1098 -6174 -6175 0
1098 -1033 -6174 -6175 0
6175 -6174 -1033 -1098 0
1033 1098 -6174 6175 0
1098 -1033 6174 6175 0
1033 -1098 6174 6175 0
1157 1219 6175 -6176 0
-1157 -1219 6175 -6176 0
1157 -1219 -6175 -6176 0
1219 -1157 -6175 -6176 0
6176 -6175 -1157 -1219 0
1157 1219 -6175 6176 0
1219 -1157 6175 6176 0
1157 -1219 6175 6176 0
1284 1343 6176 -6177 0
-1284 -1343 6176 -6177 0
1284 -1343 -6176 -6177 0
1343 -1284 -6176 -6177 0
6177 -6176 -1284 -1343 0
1284 1343 -6176 6177 0
1343 -1284 6176 6177 0
1284 -1343 6176 6177 0
1405 1467 6177 -6178 0
-1405 -1467 6177 -6178 0
1405 -1467 -6177 -6178 0
1467 -1405 -6177 -6178 0
6178 -6177 -1405 -1467 0
1405 1467 -6177 6178 0
1467 -1405 6177 6178 0
1405 -1467 6177 6178 0
1529 1591 6178 -6179 0
-1529 -1591 6178 -6179 0
1529 -1591 -6178 -6179 0
1591 -1529 -6178 -6179 0
6179 -6178 -1529 -1591 0
1529 1591 -6178 6179 0
1591 -1529 6178 6179 0
1529 -1591 6178 6179 0
1653 1718 6179 -6180 0
-1653 -1718 6179 -6180 0
1653 -1718 -6179 -6180 0
1718 -1653 -6179 -6180 0
6180 -6179 -1653 -1718 0
1653 1718 -6179 6180 0
1718 -1653 6179 6180 0
1653 -1718 6179 6180 0
1777 1839 6180 -6181 0
-1777 -1839 6180 -6181 0
1777 -1839 -6180 -6181 0
1839 -1777 -6180 -6181 0
6181 -6180 -1777 -1839 0
1777 1839 -6180 6181 0
1839 -1777 6180 6181 0
1777 -1839 6180 6181 0
1904 6166 6181 -6182 0
-1904 -6166 6181 -6182 0
1904 -6166 -6181 -6182 0
-1904 6166 -6181 -6182 0
-1904 -6166 -6181 6182 0
1904 6166 -6181 6182 0
-1904 6166 6181 6182 0
1904 -6166 6181 6182 0
1937 2073 6182 -6183 0
-1937 -2073 6182 -6183 0
1937 -2073 -6182 -6183 0
2073 -1937 -6182 -6183 0
6183 -6182 -1937 -2073 0
1937 2073 -6182 6183 0
2073 -1937 6182 6183 0
1937 -2073 6182 6183 0
2135 2197 6183 -6184 0
-2135 -2197 6183 -6184 0
2135 -2197 -6183 -6184 0
2197 -2135 -6183 -6184 0
6184 -6183 -2135 -2197 0
2135 2197 -6183 6184 0
2197 -2135 6183 6184 0
2135 -2197 6183 6184 0
2262 2321 6184 -6185 0
-2262 -2321 6184 -6185 0
2262 -2321 -6184 -6185 0
2321 -2262 -6184 -6185 0
6185 -6184 -2262 -2321 0
2262 2321 -6184 6185 0
2321 -2262 6184 6185 0
2262 -2321 6184 6185 0
2383 2448 6185 -6186 0
-2383 -2448 6185 -6186 0
2383 -2448 -6185 -6186 0
2448 -2383 -6185 -6186 0
6186 -6185 -2383 -2448 0
2383 2448 -6185 6186 0
2448 -2383 6185 6186 0
2383 -2448 6185 6186 0
2507 2569 6186 -6187 0
-2507 -2569 6186 -6187 0
2507 -2569 -6186 -6187 0
2569 -2507 -6186 -6187 0
6187 -6186 -2507 -2569 0
2507 2569 -6186 6187 0
2569 -2507 6186 6187 0
2507 -2569 6186 6187 0
2634 2693 6187 -6188 0
-2634 -2693 6187 -6188 0
2634 -2693 -6187 -6188 0
2693 -2634 -6187 -6188 0
-2634 -2693 -6187 6188 0
2634 2693 -6187 6188 0
2693 -2634 6187 6188 0
2634 -2693 6187 6188 0
2755 2820 6188 -6189 0
-2755 -2820 6188 -6189 0
2755 -2820 -6188 -6189 0
2820 -2755 -6188 -6189 0
6189 -6188 -2755 -2820 0
2755 2820 -6188 6189 0
2820 -2755 6188 6189 0
2755 -2820 6188 6189 0
2879 2941 6189 -6190 0
-2879 -2941 6189 -6190 0
2879 -2941 -6189 -6190 0
2941 -2879 -6189 -6190 0
6190 -6189 -2879 -2941 0
2879 2941 -6189 6190 0
2941 -2879 6189 6190 0
2879 -2941 6189 6190 0
-2855 5986 -6191 0
2855 -5986 -6191 0
6191 -5986 -2855 0
2855 5986 6191 0
2036 -2082 -6192 0
2082 -2036 -6192 0
-2036 -2082 6192 0
2036 2082 6192 0
2144 2206 6192 -6193 0
-2144 -2206 6192 -6193 0
2144 -2206 -6192 -6193 0
2206 -2144 -6192 -6193 0
6193 -6192 -2144 -2206 0
2144 2206 -6192 6193 0
2206 -2144 6192 6193 0
2144 -2206 6192 6193 0
2271 2330 6193 -6194 0
-2271 -2330 6193 -6194 0
2271 -2330 -6193 -6194 0
2330 -2271 -6193 -6194 0
6194 -6193 -2271 -2330 0
2271 2330 -6193 6194 0
2330 -2271 6193 6194 0
2271 -2330 6193 6194 0
2392 2457 6194 -6195 0
-2392 -2457 6194 -6195 0
2392 -2457 -6194 -6195 0
2457 -2392 -6194 -6195 0
6195 -6194 -2392 -2457 0
2392 2457 -6194 6195 0
2457 -2392 6194 6195 0
2392 -2457 6194 6195 0
2516 2578 6195 -6196 0
-2516 -2578 6195 -6196 0
2516 -2578 -6195 -6196 0
2578 -2516 -6195 -6196 0
6196 -6195 -2516 -2578 0
2516 2578 -6195 6196 0
2578 -2516 6195 6196 0
2516 -2578 6195 6196 0
2643 2702 6196 -6197 0
-2643 -2702 6196 -6197 0
2643 -2702 -6196 -6197 0
2702 -2643 -6196 -6197 0
-2643 -2702 -6196 6197 0
2643 2702 -6196 6197 0
2702 -2643 6196 6197 0
2643 -2702 6196 6197 0
2764 2829 6197 -6198 0
-2764 -2829 6197 -6198 0
2764 -2829 -6197 -6198 0
2829 -2764 -6197 -6198 0
6198 -6197 -2764 -2829 0
2764 2829 -6197 6198 0
2829 -2764 6197 6198 0
2764 -2829 6197 6198 0
2888 6191 6198 -6199 0
-2888 -6191 6198 -6199 0
2888 -6191 -6198 -6199 0
-2888 6191 -6198 -6199 0
-2888 -6191 -6198 6199 0
2888 6191 -6198 6199 0
-2888 6191 6198 6199 0
2888 -6191 6198 6199 0
2915 6190 6199 -6200 0
-2915 -6190 6199 -6200 0
2915 -6190 -6199 -6200 0
-2915 6190 -6199 -6200 0
-2915 -6190 -6199 6200 0
2915 6190 -6199 6200 0
-2915 6190 6199 6200 0
2915 -6190 6199 6200 0
2977 3077 6200 -6201 0
-2977 -3077 6200 -6201 0
2977 -3077 -6200 -6201 0
3077 -2977 -6200 -6201 0
6201 -6200 -2977 -3077 0
2977 3077 -6200 6201 0
3077 -2977 6200 6201 0
2977 -3077 6200 6201 0
3142 3201 6201 -6202 0
-3142 -3201 6201 -6202 0
3142 -3201 -6201 -6202 0
3201 -3142 -6201 -6202 0
6202 -6201 -3142 -3201 0
3142 3201 -6201 6202 0
3201 -3142 6201 6202 0
3142 -3201 6201 6202 0
3263 3328 6202 -6203 0
-3263 -3328 6202 -6203 0
3263 -3328 -6202 -6203 0
3328 -3263 -6202 -6203 0
6203 -6202 -3263 -3328 0
3263 3328 -6202 6203 0
3328 -3263 6202 6203 0
3263 -3328 6202 6203 0
3387 3449 6203 -6204 0
-3387 -3449 6203 -6204 0
3387 -3449 -6203 -6204 0
3449 -3387 -6203 -6204 0
6204 -6203 -3387 -3449 0
3387 3449 -6203 6204 0
3449 -3387 6203 6204 0
3387 -3449 6203 6204 0
3511 3573 6204 -6205 0
-3511 -3573 6204 -6205 0
3511 -3573 -6204 -6205 0
3573 -3511 -6204 -6205 0
6205 -6204 -3511 -3573 0
3511 3573 -6204 6205 0
3573 -3511 6204 6205 0
3511 -3573 6204 6205 0
3635 3697 6205 -6206 0
-3635 -3697 6205 -6206 0
3635 -3697 -6205 -6206 0
3697 -3635 -6205 -6206 0
6206 -6205 -3635 -3697 0
3635 3697 -6205 6206 0
3697 -3635 6205 6206 0
3635 -3697 6205 6206 0
3762 3821 6206 -6207 0
-3762 -3821 6206 -6207 0
3762 -3821 -6206 -6207 0
3821 -3762 -6206 -6207 0
6207 -6206 -3762 -3821 0
3762 3821 -6206 6207 0
3821 -3762 6206 6207 0
3762 -3821 6206 6207 0
3883 3948 6207 -6208 0
-3883 -3948 6207 -6208 0
3883 -3948 -6207 -6208 0
3948 -3883 -6207 -6208 0
6208 -6207 -3883 -3948 0
3883 3948 -6207 6208 0
3948 -3883 6207 6208 0
3883 -3948 6207 6208 0
4 50 112 -6209 0
4 -50 -112 -6209 0
50 -4 -112 -6209 0
112 -4 -50 -6209 0
-4 -50 -112 6209 0
50 112 -4 6209 0
4 112 -50 6209 0
4 50 -112 6209 0
174 239 6209 -6210 0
-174 -239 6209 -6210 0
174 -239 -6209 -6210 0
239 -174 -6209 -6210 0
6210 -6209 -174 -239 0
174 239 -6209 6210 0
239 -174 6209 6210 0
174 -239 6209 6210 0
298 360 6210 -6211 0
-298 -360 6210 -6211 0
298 -360 -6210 -6211 0
360 -298 -6210 -6211 0
6211 -6210 -298 -360 0
298 360 -6210 6211 0
360 -298 6210 6211 0
298 -360 6210 6211 0
425 484 6211 -6212 0
-425 -484 6211 -6212 0
425 -484 -6211 -6212 0
484 -425 -6211 -6212 0
6212 -6211 -425 -484 0
425 484 -6211 6212 0
484 -425 6211 6212 0
425 -484 6211 6212 0
546 611 6212 -6213 0
-546 -611 6212 -6213 0
546 -611 -6212 -6213 0
611 -546 -6212 -6213 0
6213 -6212 -546 -611 0
546 611 -6212 6213 0
611 -546 6212 6213 0
546 -611 6212 6213 0
670 732 6213 -6214 0
-670 -732 6213 -6214 0
670 -732 -6213 -6214 0
732 -670 -6213 -6214 0
6214 -6213 -670 -732 0
670 732 -6213 6214 0
732 -670 6213 6214 0
670 -732 6213 6214 0
797 856 6214 -6215 0
-797 -856 6214 -6215 0
797 -856 -6214 -6215 0
856 -797 -6214 -6215 0
6215 -6214 -797 -856 0
797 856 -6214 6215 0
856 -797 6214 6215 0
797 -856 6214 6215 0
883 5970 6215 -6216 0
-883 -5970 6215 -6216 0
-883 5970 -6215 -6216 0
883 -5970 -6215 -6216 0
-883 -5970 -6215 6216 0
883 5970 -6215 6216 0
883 -5970 6215 6216 0
-883 5970 6215 6216 0
945 6173 6216 -6217 0
-945 -6173 6216 -6217 0
-945 6173 -6216 -6217 0
945 -6173 -6216 -6217 0
-945 -6173 -6216 6217 0
945 6173 -6216 6217 0
945 -6173 6216 6217 0
-945 6173 6216 6217 0
1045 1110 6217 -6218 0
-1045 -1110 6217 -6218 0
1045 -1110 -6217 -6218 0
1110 -1045 -6217 -6218 0
6218 -6217 -1045 -1110 0
1045 1110 -6217 6218 0
1110 -1045 6217 6218 0
1045 -1110 6217 6218 0
1169 1231 6218 -6219 0
-1169 -1231 6218 -6219 0
1169 -1231 -6218 -6219 0
1231 -1169 -6218 -6219 0
6219 -6218 -1169 -1231 0
1169 1231 -6218 6219 0
1231 -1169 6218 6219 0
1169 -1231 6218 6219 0
1296 1355 6219 -6220 0
-1296 -1355 6219 -6220 0
1296 -1355 -6219 -6220 0
1355 -1296 -6219 -6220 0
6220 -6219 -1296 -1355 0
1296 1355 -6219 6220 0
1355 -1296 6219 6220 0
1296 -1355 6219 6220 0
1417 1479 6220 -6221 0
-1417 -1479 6220 -6221 0
1417 -1479 -6220 -6221 0
1479 -1417 -6220 -6221 0
6221 -6220 -1417 -1479 0
1417 1479 -6220 6221 0
1479 -1417 6220 6221 0
1417 -1479 6220 6221 0
1541 1603 6221 -6222 0
-1541 -1603 6221 -6222 0
1541 -1603 -6221 -6222 0
1603 -1541 -6221 -6222 0
6222 -6221 -1541 -1603 0
1541 1603 -6221 6222 0
1603 -1541 6221 6222 0
1541 -1603 6221 6222 0
1665 1730 6222 -6223 0
-1665 -1730 6222 -6223 0
1665 -1730 -6222 -6223 0
1730 -1665 -6222 -6223 0
6223 -6222 -1665 -1730 0
1665 1730 -6222 6223 0
1730 -1665 6222 6223 0
1665 -1730 6222 6223 0
1789 1851 6223 -6224 0
-1789 -1851 6223 -6224 0
1789 -1851 -6223 -6224 0
1851 -1789 -6223 -6224 0
6224 -6223 -1789 -1851 0
1789 1851 -6223 6224 0
1851 -1789 6223 6224 0
1789 -1851 6223 6224 0
1916 1975 6224 -6225 0
-1916 -1975 6224 -6225 0
1916 -1975 -6224 -6225 0
1975 -1916 -6224 -6225 0
6225 -6224 -1916 -1975 0
1916 1975 -6224 6225 0
1975 -1916 6224 6225 0
1916 -1975 6224 6225 0
4007 6208 6225 0
6225 -6208 -4007 0
-4007 6208 -6225 0
4007 -6208 -6225 0
2081 -2143 -6226 0
2143 -2081 -6226 0
6226 -2081 -2143 0
6226 2081 2143 0
2205 2270 6226 -6227 0
-2205 -2270 6226 -6227 0
2205 -2270 -6226 -6227 0
2270 -2205 -6226 -6227 0
6227 -6226 -2205 -2270 0
2205 2270 -6226 6227 0
2270 -2205 6226 6227 0
2205 -2270 6226 6227 0
2329 2391 6227 -6228 0
-2329 -2391 6227 -6228 0
2329 -2391 -6227 -6228 0
2391 -2329 -6227 -6228 0
6228 -6227 -2329 -2391 0
2329 2391 -6227 6228 0
2391 -2329 6227 6228 0
2329 -2391 6227 6228 0
2456 2515 6228 -6229 0
-2456 -2515 6228 -6229 0
2456 -2515 -6228 -6229 0
2515 -2456 -6228 -6229 0
6229 -6228 -2456 -2515 0
2456 2515 -6228 6229 0
2515 -2456 6228 6229 0
2456 -2515 6228 6229 0
2577 2642 6229 -6230 0
-2577 -2642 6229 -6230 0
2577 -2642 -6229 -6230 0
2642 -2577 -6229 -6230 0
6230 -6229 -2577 -2642 0
2577 2642 -6229 6230 0
2642 -2577 6229 6230 0
2577 -2642 6229 6230 0
2701 2763 6230 -6231 0
-2701 -2763 6230 -6231 0
2701 -2763 -6230 -6231 0
2763 -2701 -6230 -6231 0
6231 -6230 -2701 -2763 0
2701 2763 -6230 6231 0
2763 -2701 6230 6231 0
2701 -2763 6230 6231 0
2828 2887 6231 -6232 0
-2828 -2887 6231 -6232 0
2828 -2887 -6231 -6232 0
2887 -2828 -6231 -6232 0
6232 -6231 -2828 -2887 0
2828 2887 -6231 6232 0
2887 -2828 6231 6232 0
2828 -2887 6231 6232 0
-2914 6232 -6233 0
2914 -6232 -6233 0
6233 -6232 -2914 0
2914 6232 6233 0
49 -111 -6234 0
111 -49 -6234 0
6234 -49 -111 0
6234 49 111 0
173 238 6234 -6235 0
-173 -238 6234 -6235 0
173 -238 -6234 -6235 0
238 -173 -6234 -6235 0
6235 -6234 -173 -238 0
173 238 -6234 6235 0
238 -173 6234 6235 0
173 -238 6234 6235 0
297 359 6235 -6236 0
-297 -359 6235 -6236 0
297 -359 -6235 -6236 0
359 -297 -6235 -6236 0
6236 -6235 -297 -359 0
297 359 -6235 6236 0
359 -297 6235 6236 0
297 -359 6235 6236 0
424 483 6236 -6237 0
-424 -483 6236 -6237 0
424 -483 -6236 -6237 0
483 -424 -6236 -6237 0
6237 -6236 -424 -483 0
424 483 -6236 6237 0
483 -424 6236 6237 0
424 -483 6236 6237 0
545 610 6237 -6238 0
-545 -610 6237 -6238 0
545 -610 -6237 -6238 0
610 -545 -6237 -6238 0
6238 -6237 -545 -610 0
545 610 -6237 6238 0
610 -545 6237 6238 0
545 -610 6237 6238 0
669 731 6238 -6239 0
-669 -731 6238 -6239 0
669 -731 -6238 -6239 0
731 -669 -6238 -6239 0
6239 -6238 -669 -731 0
669 731 -6238 6239 0
731 -669 6238 6239 0
669 -731 6238 6239 0
796 855 6239 -6240 0
-796 -855 6239 -6240 0
796 -855 -6239 -6240 0
855 -796 -6239 -6240 0
6240 -6239 -796 -855 0
796 855 -6239 6240 0
855 -796 6239 6240 0
796 -855 6239 6240 0
-882 6240 -6241 0
882 -6240 -6241 0
6241 -6240 -882 0
882 6240 6241 0
40 -102 -6242 0
102 -40 -6242 0
6242 -40 -102 0
6242 40 102 0
164 229 6242 -6243 0
-164 -229 6242 -6243 0
164 -229 -6242 -6243 0
229 -164 -6242 -6243 0
6243 -6242 -164 -229 0
164 229 -6242 6243 0
229 -164 6242 6243 0
164 -229 6242 6243 0
288 350 6243 -6244 0
-288 -350 6243 -6244 0
288 -350 -6243 -6244 0
350 -288 -6243 -6244 0
6244 -6243 -288 -350 0
288 350 -6243 6244 0
350 -288 6243 6244 0
288 -350 6243 6244 0
415 474 6244 -6245 0
-415 -474 6244 -6245 0
415 -474 -6244 -6245 0
474 -415 -6244 -6245 0
6245 -6244 -415 -474 0
415 474 -6244 6245 0
474 -415 6244 6245 0
415 -474 6244 6245 0
536 601 6245 -6246 0
-536 -601 6245 -6246 0
536 -601 -6245 -6246 0
601 -536 -6245 -6246 0
6246 -6245 -536 -601 0
536 601 -6245 6246 0
601 -536 6245 6246 0
536 -601 6245 6246 0
660 722 6246 -6247 0
-660 -722 6246 -6247 0
660 -722 -6246 -6247 0
722 -660 -6246 -6247 0
6247 -6246 -660 -722 0
660 722 -6246 6247 0
722 -660 6246 6247 0
660 -722 6246 6247 0
787 846 6247 -6248 0
-787 -846 6247 -6248 0
787 -846 -6247 -6248 0
846 -787 -6247 -6248 0
6248 -6247 -787 -846 0
787 846 -6247 6248 0
846 -787 6247 6248 0
787 -846 6247 6248 0
908 6241 6248 -6249 0
-908 -6241 6248 -6249 0
908 -6241 -6248 -6249 0
-908 6241 -6248 -6249 0
-908 -6241 -6248 6249 0
908 6241 -6248 6249 0
-908 6241 6248 6249 0
908 -6241 6248 6249 0
946 1032 6249 -6250 0
-946 -1032 6249 -6250 0
946 -1032 -6249 -6250 0
1032 -946 -6249 -6250 0
6250 -6249 -946 -1032 0
946 1032 -6249 6250 0
1032 -946 6249 6250 0
946 -1032 6249 6250 0
1097 1156 6250 -6251 0
-1097 -1156 6250 -6251 0
1097 -1156 -6250 -6251 0
1156 -1097 -6250 -6251 0
6251 -6250 -1097 -1156 0
1097 1156 -6250 6251 0
1156 -1097 6250 6251 0
1097 -1156 6250 6251 0
1218 1283 6251 -6252 0
-1218 -1283 6251 -6252 0
1218 -1283 -6251 -6252 0
1283 -1218 -6251 -6252 0
6252 -6251 -1218 -1283 0
1218 1283 -6251 6252 0
1283 -1218 6251 6252 0
1218 -1283 6251 6252 0
1342 1404 6252 -6253 0
-1342 -1404 6252 -6253 0
1342 -1404 -6252 -6253 0
1404 -1342 -6252 -6253 0
6253 -6252 -1342 -1404 0
1342 1404 -6252 6253 0
1404 -1342 6252 6253 0
1342 -1404 6252 6253 0
1466 1528 6253 -6254 0
-1466 -1528 6253 -6254 0
1466 -1528 -6253 -6254 0
1528 -1466 -6253 -6254 0
6254 -6253 -1466 -1528 0
1466 1528 -6253 6254 0
1528 -1466 6253 6254 0
1466 -1528 6253 6254 0
1590 1652 6254 -6255 0
-1590 -1652 6254 -6255 0
1590 -1652 -6254 -6255 0
1652 -1590 -6254 -6255 0
6255 -6254 -1590 -1652 0
1590 1652 -6254 6255 0
1652 -1590 6254 6255 0
1590 -1652 6254 6255 0
1717 1776 6255 -6256 0
-1717 -1776 6255 -6256 0
1717 -1776 -6255 -6256 0
1776 -1717 -6255 -6256 0
6256 -6255 -1717 -1776 0
1717 1776 -6255 6256 0
1776 -1717 6255 6256 0
1717 -1776 6255 6256 0
1838 1903 6256 -6257 0
-1838 -1903 6256 -6257 0
1838 -1903 -6256 -6257 0
1903 -1838 -6256 -6257 0
6257 -6256 -1838 -1903 0
1838 1903 -6256 6257 0
1903 -1838 6256 6257 0
1838 -1903 6256 6257 0
-1936 6257 -6258 0
1936 -6257 -6258 0
6258 -6257 -1936 0
1936 6257 6258 0
2072 2134 6258 -6259 0
-2072 -2134 6258 -6259 0
2072 -2134 -6258 -6259 0
2134 -2072 -6258 -6259 0
6259 -6258 -2072 -2134 0
2072 2134 -6258 6259 0
2134 -2072 6258 6259 0
2072 -2134 6258 6259 0
2196 2261 6259 -6260 0
-2196 -2261 6259 -6260 0
2196 -2261 -6259 -6260 0
2261 -2196 -6259 -6260 0
6260 -6259 -2196 -2261 0
2196 2261 -6259 6260 0
2261 -2196 6259 6260 0
2196 -2261 6259 6260 0
2320 2382 6260 -6261 0
-2320 -2382 6260 -6261 0
2320 -2382 -6260 -6261 0
2382 -2320 -6260 -6261 0
6261 -6260 -2320 -2382 0
2320 2382 -6260 6261 0
2382 -2320 6260 6261 0
2320 -2382 6260 6261 0
2447 2506 6261 -6262 0
-2447 -2506 6261 -6262 0
2447 -2506 -6261 -6262 0
2506 -2447 -6261 -6262 0
6262 -6261 -2447 -2506 0
2447 2506 -6261 6262 0
2506 -2447 6261 6262 0
2447 -2506 6261 6262 0
2568 2633 6262 -6263 0
-2568 -2633 6262 -6263 0
2568 -2633 -6262 -6263 0
2633 -2568 -6262 -6263 0
6263 -6262 -2568 -2633 0
2568 2633 -6262 6263 0
2633 -2568 6262 6263 0
2568 -2633 6262 6263 0
2692 2754 6263 -6264 0
-2692 -2754 6263 -6264 0
2692 -2754 -6263 -6264 0
2754 -2692 -6263 -6264 0
6264 -6263 -2692 -2754 0
2692 2754 -6263 6264 0
2754 -2692 6263 6264 0
2692 -2754 6263 6264 0
2819 2878 6264 -6265 0
-2819 -2878 6264 -6265 0
2819 -2878 -6264 -6265 0
2878 -2819 -6264 -6265 0
6265 -6264 -2819 -2878 0
2819 2878 -6264 6265 0
2878 -2819 6264 6265 0
2819 -2878 6264 6265 0
2940 6233 6265 -6266 0
-2940 -6233 6265 -6266 0
2940 -6233 -6265 -6266 0
-2940 6233 -6265 -6266 0
-2940 -6233 -6265 6266 0
2940 6233 -6265 6266 0
-2940 6233 6265 6266 0
2940 -6233 6265 6266 0
2978 3064 6266 -6267 0
-2978 -3064 6266 -6267 0
2978 -3064 -6266 -6267 0
3064 -2978 -6266 -6267 0
6267 -6266 -2978 -3064 0
2978 3064 -6266 6267 0
3064 -2978 6266 6267 0
2978 -3064 6266 6267 0
3129 3188 6267 -6268 0
-3129 -3188 6267 -6268 0
3129 -3188 -6267 -6268 0
3188 -3129 -6267 -6268 0
6268 -6267 -3129 -3188 0
3129 3188 -6267 6268 0
3188 -3129 6267 6268 0
3129 -3188 6267 6268 0
3250 3315 6268 -6269 0
-3250 -3315 6268 -6269 0
3250 -3315 -6268 -6269 0
3315 -3250 -6268 -6269 0
6269 -6268 -3250 -3315 0
3250 3315 -6268 6269 0
3315 -3250 6268 6269 0
3250 -3315 6268 6269 0
3374 3436 6269 -6270 0
-3374 -3436 6269 -6270 0
3374 -3436 -6269 -6270 0
3436 -3374 -6269 -6270 0
6270 -6269 -3374 -3436 0
3374 3436 -6269 6270 0
3436 -3374 6269 6270 0
3374 -3436 6269 6270 0
3498 3560 6270 -6271 0
-3498 -3560 6270 -6271 0
3498 -3560 -6270 -6271 0
3560 -3498 -6270 -6271 0
6271 -6270 -3498 -3560 0
3498 3560 -6270 6271 0
3560 -3498 6270 6271 0
3498 -3560 6270 6271 0
3622 3684 6271 -6272 0
-3622 -3684 6271 -6272 0
3622 -3684 -6271 -6272 0
3684 -3622 -6271 -6272 0
6272 -6271 -3622 -3684 0
3622 3684 -6271 6272 0
3684 -3622 6271 6272 0
3622 -3684 6271 6272 0
3749 3808 6272 -6273 0
-3749 -3808 6272 -6273 0
3749 -3808 -6272 -6273 0
3808 -3749 -6272 -6273 0
6273 -6272 -3749 -3808 0
3749 3808 -6272 6273 0
3808 -3749 6272 6273 0
3749 -3808 6272 6273 0
3870 3935 6273 -6274 0
-3870 -3935 6273 -6274 0
3870 -3935 -6273 -6274 0
3935 -3870 -6273 -6274 0
6274 -6273 -3870 -3935 0
3870 3935 -6273 6274 0
3935 -3870 6273 6274 0
3870 -3935 6273 6274 0
2042 -2099 -6275 0
2099 -2042 -6275 0
-2042 -2099 6275 0
2042 2099 6275 0
2161 2223 6275 -6276 0
-2161 -2223 6275 -6276 0
2161 -2223 -6275 -6276 0
2223 -2161 -6275 -6276 0
6276 -6275 -2161 -2223 0
2161 2223 -6275 6276 0
2223 -2161 6275 6276 0
2161 -2223 6275 6276 0
2288 2347 6276 -6277 0
-2288 -2347 6276 -6277 0
2288 -2347 -6276 -6277 0
2347 -2288 -6276 -6277 0
6277 -6276 -2288 -2347 0
2288 2347 -6276 6277 0
2347 -2288 6276 6277 0
2288 -2347 6276 6277 0
2409 2474 6277 -6278 0
-2409 -2474 6277 -6278 0
2409 -2474 -6277 -6278 0
2474 -2409 -6277 -6278 0
6278 -6277 -2409 -2474 0
2409 2474 -6277 6278 0
2474 -2409 6277 6278 0
2409 -2474 6277 6278 0
2533 2595 6278 -6279 0
-2533 -2595 6278 -6279 0
2533 -2595 -6278 -6279 0
2595 -2533 -6278 -6279 0
6279 -6278 -2533 -2595 0
2533 2595 -6278 6279 0
2595 -2533 6278 6279 0
2533 -2595 6278 6279 0
2660 2719 6279 -6280 0
-2660 -2719 6279 -6280 0
2660 -2719 -6279 -6280 0
2719 -2660 -6279 -6280 0
-2660 -2719 -6279 6280 0
2660 2719 -6279 6280 0
2719 -2660 6279 6280 0
2660 -2719 6279 6280 0
2781 2846 6280 -6281 0
-2781 -2846 6280 -6281 0
2781 -2846 -6280 -6281 0
2846 -2781 -6280 -6281 0
6281 -6280 -2781 -2846 0
2781 2846 -6280 6281 0
2846 -2781 6280 6281 0
2781 -2846 6280 6281 0
2905 2967 6281 -6282 0
-2905 -2967 6281 -6282 0
2905 -2967 -6281 -6282 0
2967 -2905 -6281 -6282 0
6282 -6281 -2905 -2967 0
2905 2967 -6281 6282 0
2967 -2905 6281 6282 0
2905 -2967 6281 6282 0
3029 3091 6282 -6283 0
-3029 -3091 6282 -6283 0
3029 -3091 -6282 -6283 0
3091 -3029 -6282 -6283 0
6283 -6282 -3029 -3091 0
3029 3091 -6282 6283 0
3091 -3029 6282 6283 0
3029 -3091 6282 6283 0
3153 3215 6283 -6284 0
-3153 -3215 6283 -6284 0
3153 -3215 -6283 -6284 0
3215 -3153 -6283 -6284 0
6284 -6283 -3153 -3215 0
3153 3215 -6283 6284 0
3215 -3153 6283 6284 0
3153 -3215 6283 6284 0
3277 3339 6284 -6285 0
-3277 -3339 6284 -6285 0
3277 -3339 -6284 -6285 0
3339 -3277 -6284 -6285 0
6285 -6284 -3277 -3339 0
3277 3339 -6284 6285 0
3339 -3277 6284 6285 0
3277 -3339 6284 6285 0
3401 3463 6285 -6286 0
-3401 -3463 6285 -6286 0
3401 -3463 -6285 -6286 0
3463 -3401 -6285 -6286 0
6286 -6285 -3401 -3463 0
3401 3463 -6285 6286 0
3463 -3401 6285 6286 0
3401 -3463 6285 6286 0
3525 3587 6286 -6287 0
-3525 -3587 6286 -6287 0
3525 -3587 -6286 -6287 0
3587 -3525 -6286 -6287 0
6287 -6286 -3525 -3587 0
3525 3587 -6286 6287 0
3587 -3525 6286 6287 0
3525 -3587 6286 6287 0
3649 3711 6287 -6288 0
-3649 -3711 6287 -6288 0
3649 -3711 -6287 -6288 0
3711 -3649 -6287 -6288 0
6288 -6287 -3649 -3711 0
3649 3711 -6287 6288 0
3711 -3649 6287 6288 0
3649 -3711 6287 6288 0
-3720 6288 -6289 0
3720 -6288 -6289 0
6289 -6288 -3720 0
3720 6288 6289 0
3835 3897 6289 -6290 0
-3835 -3897 6289 -6290 0
3835 -3897 -6289 -6290 0
3897 -3835 -6289 -6290 0
6290 -6289 -3835 -3897 0
3835 3897 -6289 6290 0
3897 -3835 6289 6290 0
3835 -3897 6289 6290 0
-2790 5499 -6291 0
2790 -5499 -6291 0
6291 -5499 -2790 0
2790 5499 6291 0
-758 5389 -6292 0
758 -5389 -6292 0
6292 -5389 -758 0
758 5389 6292 0
37 99 161 -6293 0
37 -99 -161 -6293 0
99 -37 -161 -6293 0
161 -37 -99 -6293 0
6293 -37 -99 -161 0
99 161 -37 6293 0
37 161 -99 6293 0
6293 37 99 -161 0
226 285 6293 -6294 0
-226 -285 6293 -6294 0
226 -285 -6293 -6294 0
285 -226 -6293 -6294 0
6294 -6293 -226 -285 0
226 285 -6293 6294 0
285 -226 6293 6294 0
226 -285 6293 6294 0
347 412 6294 -6295 0
-347 -412 6294 -6295 0
347 -412 -6294 -6295 0
412 -347 -6294 -6295 0
6295 -6294 -347 -412 0
347 412 -6294 6295 0
412 -347 6294 6295 0
347 -412 6294 6295 0
471 533 6295 -6296 0
-471 -533 6295 -6296 0
471 -533 -6295 -6296 0
533 -471 -6295 -6296 0
6296 -6295 -471 -533 0
471 533 -6295 6296 0
533 -471 6295 6296 0
471 -533 6295 6296 0
598 657 6296 -6297 0
-598 -657 6296 -6297 0
598 -657 -6296 -6297 0
657 -598 -6296 -6297 0
-598 -657 -6296 6297 0
598 657 -6296 6297 0
657 -598 6296 6297 0
598 -657 6296 6297 0
719 784 6297 -6298 0
-719 -784 6297 -6298 0
719 -784 -6297 -6298 0
784 -719 -6297 -6298 0
6298 -6297 -719 -784 0
719 784 -6297 6298 0
784 -719 6297 6298 0
719 -784 6297 6298 0
822 6292 6298 -6299 0
-822 -6292 6298 -6299 0
-822 6292 -6298 -6299 0
822 -6292 -6298 -6299 0
-822 -6292 -6298 6299 0
822 6292 -6298 6299 0
822 -6292 6298 6299 0
-822 6292 6298 6299 0
884 6240 6299 -6300 0
-884 -6240 6299 -6300 0
-884 6240 -6299 -6300 0
884 -6240 -6299 -6300 0
-884 -6240 -6299 6300 0
884 6240 -6299 6300 0
884 -6240 6299 6300 0
-884 6240 6299 6300 0
970 1029 6300 -6301 0
-970 -1029 6300 -6301 0
970 -1029 -6300 -6301 0
1029 -970 -6300 -6301 0
6301 -6300 -970 -1029 0
970 1029 -6300 6301 0
1029 -970 6300 6301 0
970 -1029 6300 6301 0
1094 1153 6301 -6302 0
-1094 -1153 6301 -6302 0
1094 -1153 -6301 -6302 0
1153 -1094 -6301 -6302 0
6302 -6301 -1094 -1153 0
1094 1153 -6301 6302 0
1153 -1094 6301 6302 0
1094 -1153 6301 6302 0
1215 1280 6302 -6303 0
-1215 -1280 6302 -6303 0
1215 -1280 -6302 -6303 0
1280 -1215 -6302 -6303 0
6303 -6302 -1215 -1280 0
1215 1280 -6302 6303 0
1280 -1215 6302 6303 0
1215 -1280 6302 6303 0
1339 1401 6303 -6304 0
-1339 -1401 6303 -6304 0
1339 -1401 -6303 -6304 0
1401 -1339 -6303 -6304 0
6304 -6303 -1339 -1401 0
1339 1401 -6303 6304 0
1401 -1339 6303 6304 0
1339 -1401 6303 6304 0
1463 1525 6304 -6305 0
-1463 -1525 6304 -6305 0
1463 -1525 -6304 -6305 0
1525 -1463 -6304 -6305 0
6305 -6304 -1463 -1525 0
1463 1525 -6304 6305 0
1525 -1463 6304 6305 0
1463 -1525 6304 6305 0
1587 1649 6305 -6306 0
-1587 -1649 6305 -6306 0
1587 -1649 -6305 -6306 0
1649 -1587 -6305 -6306 0
6306 -6305 -1587 -1649 0
1587 1649 -6305 6306 0
1649 -1587 6305 6306 0
1587 -1649 6305 6306 0
1714 1773 6306 -6307 0
-1714 -1773 6306 -6307 0
1714 -1773 -6306 -6307 0
1773 -1714 -6306 -6307 0
6307 -6306 -1714 -1773 0
1714 1773 -6306 6307 0
1773 -1714 6306 6307 0
1714 -1773 6306 6307 0
1812 1900 6307 -6308 0
-1812 -1900 6307 -6308 0
1812 -1900 -6307 -6308 0
1900 -1812 -6307 -6308 0
6308 -6307 -1812 -1900 0
1812 1900 -6307 6308 0
1900 -1812 6307 6308 0
1812 -1900 6307 6308 0
1962 2069 6308 -6309 0
-1962 -2069 6308 -6309 0
1962 -2069 -6308 -6309 0
2069 -1962 -6308 -6309 0
6309 -6308 -1962 -2069 0
1962 2069 -6308 6309 0
2069 -1962 6308 6309 0
1962 -2069 6308 6309 0
2131 2193 6309 -6310 0
-2131 -2193 6309 -6310 0
2131 -2193 -6309 -6310 0
2193 -2131 -6309 -6310 0
6310 -6309 -2131 -2193 0
2131 2193 -6309 6310 0
2193 -2131 6309 6310 0
2131 -2193 6309 6310 0
2258 2317 6310 -6311 0
-2258 -2317 6310 -6311 0
2258 -2317 -6310 -6311 0
2317 -2258 -6310 -6311 0
6311 -6310 -2258 -2317 0
2258 2317 -6310 6311 0
2317 -2258 6310 6311 0
2258 -2317 6310 6311 0
2379 2444 6311 -6312 0
-2379 -2444 6311 -6312 0
2379 -2444 -6311 -6312 0
2444 -2379 -6311 -6312 0
6312 -6311 -2379 -2444 0
2379 2444 -6311 6312 0
2444 -2379 6311 6312 0
2379 -2444 6311 6312 0
2503 2565 6312 -6313 0
-2503 -2565 6312 -6313 0
2503 -2565 -6312 -6313 0
2565 -2503 -6312 -6313 0
6313 -6312 -2503 -2565 0
2503 2565 -6312 6313 0
2565 -2503 6312 6313 0
2503 -2565 6312 6313 0
2630 2689 6313 -6314 0
-2630 -2689 6313 -6314 0
2630 -2689 -6313 -6314 0
2689 -2630 -6313 -6314 0
-2630 -2689 -6313 6314 0
2630 2689 -6313 6314 0
2689 -2630 6313 6314 0
2630 -2689 6313 6314 0
2751 2816 6314 -6315 0
-2751 -2816 6314 -6315 0
2751 -2816 -6314 -6315 0
2816 -2751 -6314 -6315 0
6315 -6314 -2751 -2816 0
2751 2816 -6314 6315 0
2816 -2751 6314 6315 0
2751 -2816 6314 6315 0
2854 6291 6315 -6316 0
-2854 -6291 6315 -6316 0
-2854 6291 -6315 -6316 0
2854 -6291 -6315 -6316 0
-2854 -6291 -6315 6316 0
2854 6291 -6315 6316 0
2854 -6291 6315 6316 0
-2854 6291 6315 6316 0
2916 6232 6316 -6317 0
-2916 6232 -6316 -6317 0
-2916 -6232 6316 -6317 0
2916 -6232 -6316 -6317 0
6317 -6232 -6316 -2916 0
2916 -6232 6316 6317 0
2916 6232 -6316 6317 0
-2916 6232 6316 6317 0
3002 3061 6317 -6318 0
-3002 -3061 6317 -6318 0
3002 -3061 -6317 -6318 0
3061 -3002 -6317 -6318 0
6318 -6317 -3002 -3061 0
3002 3061 -6317 6318 0
3061 -3002 6317 6318 0
3002 -3061 6317 6318 0
3126 3185 6318 -6319 0
-3126 -3185 6318 -6319 0
3126 -3185 -6318 -6319 0
3185 -3126 -6318 -6319 0
6319 -6318 -3126 -3185 0
3126 3185 -6318 6319 0
3185 -3126 6318 6319 0
3126 -3185 6318 6319 0
3247 3312 6319 -6320 0
-3247 -3312 6319 -6320 0
3247 -3312 -6319 -6320 0
3312 -3247 -6319 -6320 0
6320 -6319 -3247 -3312 0
3247 3312 -6319 6320 0
3312 -3247 6319 6320 0
3247 -3312 6319 6320 0
3371 3433 6320 -6321 0
-3371 -3433 6320 -6321 0
3371 -3433 -6320 -6321 0
3433 -3371 -6320 -6321 0
6321 -6320 -3371 -3433 0
3371 3433 -6320 6321 0
3433 -3371 6320 6321 0
3371 -3433 6320 6321 0
3495 3557 6321 -6322 0
-3495 -3557 6321 -6322 0
3495 -3557 -6321 -6322 0
3557 -3495 -6321 -6322 0
6322 -6321 -3495 -3557 0
3495 3557 -6321 6322 0
3557 -3495 6321 6322 0
3495 -3557 6321 6322 0
3619 3681 6322 -6323 0
-3619 -3681 6322 -6323 0
3619 -3681 -6322 -6323 0
3681 -3619 -6322 -6323 0
6323 -6322 -3619 -3681 0
3619 3681 -6322 6323 0
3681 -3619 6322 6323 0
3619 -3681 6322 6323 0
3746 3805 6323 -6324 0
-3746 -3805 6323 -6324 0
3746 -3805 -6323 -6324 0
3805 -3746 -6323 -6324 0
6324 -6323 -3746 -3805 0
3746 3805 -6323 6324 0
3805 -3746 6323 6324 0
3746 -3805 6323 6324 0
-3472 5928 -6325 0
3472 -5928 -6325 0
6325 -5928 -3472 0
3472 5928 6325 0
3551 3616 6325 -6326 0
-3551 -3616 6325 -6326 0
3551 -3616 -6325 -6326 0
3616 -3551 -6325 -6326 0
6326 -6325 -3551 -3616 0
3551 3616 -6325 6326 0
3616 -3551 6325 6326 0
3551 -3616 6325 6326 0
3675 3740 6326 -6327 0
-3675 -3740 6326 -6327 0
3675 -3740 -6326 -6327 0
3740 -3675 -6326 -6327 0
6327 -6326 -3675 -3740 0
3675 3740 -6326 6327 0
3740 -3675 6326 6327 0
3675 -3740 6326 6327 0
-3348 5612 -6328 0
3348 -5612 -6328 0
6328 -5612 -3348 0
3348 5612 6328 0
3424 3489 6328 -6329 0
-3424 -3489 6328 -6329 0
3424 -3489 -6328 -6329 0
3489 -3424 -6328 -6329 0
6329 -6328 -3424 -3489 0
3424 3489 -6328 6329 0
3489 -3424 6328 6329 0
3424 -3489 6328 6329 0
3548 3613 6329 -6330 0
-3548 -3613 6329 -6330 0
3548 -3613 -6329 -6330 0
3613 -3548 -6329 -6330 0
6330 -6329 -3548 -3613 0
3548 3613 -6329 6330 0
3613 -3548 6329 6330 0
3548 -3613 6329 6330 0
2040 -2093 -6331 0
2093 -2040 -6331 0
-2040 -2093 6331 0
2040 2093 6331 0
2155 2217 6331 -6332 0
-2155 -2217 6331 -6332 0
2155 -2217 -6331 -6332 0
2217 -2155 -6331 -6332 0
6332 -6331 -2155 -2217 0
2155 2217 -6331 6332 0
2217 -2155 6331 6332 0
2155 -2217 6331 6332 0
2282 2341 6332 -6333 0
-2282 -2341 6332 -6333 0
2282 -2341 -6332 -6333 0
2341 -2282 -6332 -6333 0
6333 -6332 -2282 -2341 0
2282 2341 -6332 6333 0
2341 -2282 6332 6333 0
2282 -2341 6332 6333 0
2403 2468 6333 -6334 0
-2403 -2468 6333 -6334 0
2403 -2468 -6333 -6334 0
2468 -2403 -6333 -6334 0
6334 -6333 -2403 -2468 0
2403 2468 -6333 6334 0
2468 -2403 6333 6334 0
2403 -2468 6333 6334 0
2527 2589 6334 -6335 0
-2527 -2589 6334 -6335 0
2527 -2589 -6334 -6335 0
2589 -2527 -6334 -6335 0
6335 -6334 -2527 -2589 0
2527 2589 -6334 6335 0
2589 -2527 6334 6335 0
2527 -2589 6334 6335 0
2654 2713 6335 -6336 0
-2654 -2713 6335 -6336 0
2654 -2713 -6335 -6336 0
2713 -2654 -6335 -6336 0
-2654 -2713 -6335 6336 0
2654 2713 -6335 6336 0
2713 -2654 6335 6336 0
2654 -2713 6335 6336 0
2775 2840 6336 -6337 0
-2775 -2840 6336 -6337 0
2775 -2840 -6336 -6337 0
2840 -2775 -6336 -6337 0
6337 -6336 -2775 -2840 0
2775 2840 -6336 6337 0
2840 -2775 6336 6337 0
2775 -2840 6336 6337 0
2899 2961 6337 -6338 0
-2899 -2961 6337 -6338 0
2899 -2961 -6337 -6338 0
2961 -2899 -6337 -6338 0
6338 -6337 -2899 -2961 0
2899 2961 -6337 6338 0
2961 -2899 6337 6338 0
2899 -2961 6337 6338 0
3023 3085 6338 -6339 0
-3023 -3085 6338 -6339 0
3023 -3085 -6338 -6339 0
3085 -3023 -6338 -6339 0
6339 -6338 -3023 -3085 0
3023 3085 -6338 6339 0
3085 -3023 6338 6339 0
3023 -3085 6338 6339 0
3150 3209 6339 -6340 0
-3150 -3209 6339 -6340 0
3150 -3209 -6339 -6340 0
3209 -3150 -6339 -6340 0
6340 -6339 -3150 -3209 0
3150 3209 -6339 6340 0
3209 -3150 6339 6340 0
3150 -3209 6339 6340 0
3271 3336 6340 -6341 0
-3271 -3336 6340 -6341 0
3271 -3336 -6340 -6341 0
3336 -3271 -6340 -6341 0
6341 -6340 -3271 -3336 0
3271 3336 -6340 6341 0
3336 -3271 6340 6341 0
3271 -3336 6340 6341 0
3395 3457 6341 -6342 0
-3395 -3457 6341 -6342 0
3395 -3457 -6341 -6342 0
3457 -3395 -6341 -6342 0
6342 -6341 -3395 -3457 0
3395 3457 -6341 6342 0
3457 -3395 6341 6342 0
3395 -3457 6341 6342 0
3519 3581 6342 -6343 0
-3519 -3581 6342 -6343 0
3519 -3581 -6342 -6343 0
3581 -3519 -6342 -6343 0
6343 -6342 -3519 -3581 0
3519 3581 -6342 6343 0
3581 -3519 6342 6343 0
3519 -3581 6342 6343 0
3643 6330 6343 -6344 0
-3643 -6330 6343 -6344 0
3643 -6330 -6343 -6344 0
-3643 6330 -6343 -6344 0
-3643 -6330 -6343 6344 0
3643 6330 -6343 6344 0
-3643 6330 6343 6344 0
3643 -6330 6343 6344 0
3660 6288 6344 -6345 0
-3660 6288 -6344 -6345 0
-3660 -6288 6344 -6345 0
3660 -6288 -6344 -6345 0
6345 -6288 -6344 -3660 0
3660 -6288 6344 6345 0
3660 6288 -6344 6345 0
-3660 6288 6344 6345 0
3722 6327 6345 -6346 0
-3722 -6327 6345 -6346 0
3722 -6327 -6345 -6346 0
-3722 6327 -6345 -6346 0
-3722 -6327 -6345 6346 0
3722 6327 -6345 6346 0
-3722 6327 6345 6346 0
3722 -6327 6345 6346 0
3784 6324 6346 -6347 0
-3784 -6324 6346 -6347 0
3784 -6324 -6346 -6347 0
-3784 6324 -6346 -6347 0
-3784 -6324 -6346 6347 0
3784 6324 -6346 6347 0
-3784 6324 6346 6347 0
3784 -6324 6346 6347 0
3846 6290 6347 -6348 0
-3846 -6290 6347 -6348 0
3846 -6290 -6347 -6348 0
-3846 6290 -6347 -6348 0
-3846 -6290 -6347 6348 0
3846 6290 -6347 6348 0
-3846 6290 6347 6348 0
3846 -6290 6347 6348 0
3908 6274 6348 -6349 0
-3908 -6274 6348 -6349 0
3908 -6274 -6348 -6349 0
-3908 6274 -6348 -6349 0
-3908 -6274 -6348 6349 0
3908 6274 -6348 6349 0
-3908 6274 6348 6349 0
3908 -6274 6348 6349 0
10 -67 -6350 0
67 -10 -6350 0
-10 -67 6350 0
10 67 6350 0
129 191 6350 -6351 0
-129 -191 6350 -6351 0
129 -191 -6350 -6351 0
191 -129 -6350 -6351 0
6351 -6350 -129 -191 0
129 191 -6350 6351 0
191 -129 6350 6351 0
129 -191 6350 6351 0
256 315 6351 -6352 0
-256 -315 6351 -6352 0
256 -315 -6351 -6352 0
315 -256 -6351 -6352 0
6352 -6351 -256 -315 0
256 315 -6351 6352 0
315 -256 6351 6352 0
256 -315 6351 6352 0
377 442 6352 -6353 0
-377 -442 6352 -6353 0
377 -442 -6352 -6353 0
442 -377 -6352 -6353 0
6353 -6352 -377 -442 0
377 442 -6352 6353 0
442 -377 6352 6353 0
377 -442 6352 6353 0
501 563 6353 -6354 0
-501 -563 6353 -6354 0
501 -563 -6353 -6354 0
563 -501 -6353 -6354 0
6354 -6353 -501 -563 0
501 563 -6353 6354 0
563 -501 6353 6354 0
501 -563 6353 6354 0
628 687 6354 -6355 0
-628 -687 6354 -6355 0
628 -687 -6354 -6355 0
687 -628 -6354 -6355 0
-628 -687 -6354 6355 0
628 687 -6354 6355 0
687 -628 6354 6355 0
628 -687 6354 6355 0
749 814 6355 -6356 0
-749 -814 6355 -6356 0
749 -814 -6355 -6356 0
814 -749 -6355 -6356 0
6356 -6355 -749 -814 0
749 814 -6355 6356 0
814 -749 6355 6356 0
749 -814 6355 6356 0
873 935 6356 -6357 0
-873 -935 6356 -6357 0
873 -935 -6356 -6357 0
935 -873 -6356 -6357 0
6357 -6356 -873 -935 0
873 935 -6356 6357 0
935 -873 6356 6357 0
873 -935 6356 6357 0
997 1059 6357 -6358 0
-997 -1059 6357 -6358 0
997 -1059 -6357 -6358 0
1059 -997 -6357 -6358 0
6358 -6357 -997 -1059 0
997 1059 -6357 6358 0
1059 -997 6357 6358 0
997 -1059 6357 6358 0
1121 1183 6358 -6359 0
-1121 -1183 6358 -6359 0
1121 -1183 -6358 -6359 0
1183 -1121 -6358 -6359 0
6359 -6358 -1121 -1183 0
1121 1183 -6358 6359 0
1183 -1121 6358 6359 0
1121 -1183 6358 6359 0
1245 1307 6359 -6360 0
-1245 -1307 6359 -6360 0
1245 -1307 -6359 -6360 0
1307 -1245 -6359 -6360 0
6360 -6359 -1245 -1307 0
1245 1307 -6359 6360 0
1307 -1245 6359 6360 0
1245 -1307 6359 6360 0
1369 1431 6360 -6361 0
-1369 -1431 6360 -6361 0
1369 -1431 -6360 -6361 0
1431 -1369 -6360 -6361 0
6361 -6360 -1369 -1431 0
1369 1431 -6360 6361 0
1431 -1369 6360 6361 0
1369 -1431 6360 6361 0
1493 1555 6361 -6362 0
-1493 -1555 6361 -6362 0
1493 -1555 -6361 -6362 0
1555 -1493 -6361 -6362 0
6362 -6361 -1493 -1555 0
1493 1555 -6361 6362 0
1555 -1493 6361 6362 0
1493 -1555 6361 6362 0
1617 1679 6362 -6363 0
-1617 -1679 6362 -6363 0
1617 -1679 -6362 -6363 0
1679 -1617 -6362 -6363 0
6363 -6362 -1617 -1679 0
1617 1679 -6362 6363 0
1679 -1617 6362 6363 0
1617 -1679 6362 6363 0
-1688 6363 -6364 0
1688 -6363 -6364 0
6364 -6363 -1688 0
1688 6363 6364 0
1803 1865 6364 -6365 0
-1803 -1865 6364 -6365 0
1803 -1865 -6364 -6365 0
1865 -1803 -6364 -6365 0
6365 -6364 -1803 -1865 0
1803 1865 -6364 6365 0
1865 -1803 6364 6365 0
1803 -1865 6364 6365 0
8 61 123 -6366 0
8 -61 -123 -6366 0
61 -8 -123 -6366 0
123 -8 -61 -6366 0
-8 -61 -123 6366 0
61 123 -8 6366 0
8 123 -61 6366 0
8 61 -123 6366 0
185 250 6366 -6367 0
-185 -250 6366 -6367 0
185 -250 -6366 -6367 0
250 -185 -6366 -6367 0
6367 -6366 -185 -250 0
185 250 -6366 6367 0
250 -185 6366 6367 0
185 -250 6366 6367 0
309 371 6367 -6368 0
-309 -371 6367 -6368 0
309 -371 -6367 -6368 0
371 -309 -6367 -6368 0
6368 -6367 -309 -371 0
309 371 -6367 6368 0
371 -309 6367 6368 0
309 -371 6367 6368 0
436 495 6368 -6369 0
-436 -495 6368 -6369 0
436 -495 -6368 -6369 0
495 -436 -6368 -6369 0
6369 -6368 -436 -495 0
436 495 -6368 6369 0
495 -436 6368 6369 0
436 -495 6368 6369 0
557 622 6369 -6370 0
-557 -622 6369 -6370 0
557 -622 -6369 -6370 0
622 -557 -6369 -6370 0
6370 -6369 -557 -622 0
557 622 -6369 6370 0
622 -557 6369 6370 0
557 -622 6369 6370 0
681 743 6370 -6371 0
-681 -743 6370 -6371 0
681 -743 -6370 -6371 0
743 -681 -6370 -6371 0
6371 -6370 -681 -743 0
681 743 -6370 6371 0
743 -681 6370 6371 0
681 -743 6370 6371 0
808 867 6371 -6372 0
-808 -867 6371 -6372 0
808 -867 -6371 -6372 0
867 -808 -6371 -6372 0
6372 -6371 -808 -867 0
808 867 -6371 6372 0
867 -808 6371 6372 0
808 -867 6371 6372 0
929 991 6372 -6373 0
-929 -991 6372 -6373 0
929 -991 -6372 -6373 0
991 -929 -6372 -6373 0
6373 -6372 -929 -991 0
929 991 -6372 6373 0
991 -929 6372 6373 0
929 -991 6372 6373 0
1053 1118 6373 -6374 0
-1053 -1118 6373 -6374 0
1053 -1118 -6373 -6374 0
1118 -1053 -6373 -6374 0
6374 -6373 -1053 -1118 0
1053 1118 -6373 6374 0
1118 -1053 6373 6374 0
1053 -1118 6373 6374 0
1177 1239 6374 -6375 0
-1177 -1239 6374 -6375 0
1177 -1239 -6374 -6375 0
1239 -1177 -6374 -6375 0
6375 -6374 -1177 -1239 0
1177 1239 -6374 6375 0
1239 -1177 6374 6375 0
1177 -1239 6374 6375 0
1304 1363 6375 -6376 0
-1304 -1363 6375 -6376 0
1304 -1363 -6375 -6376 0
1363 -1304 -6375 -6376 0
6376 -6375 -1304 -1363 0
1304 1363 -6375 6376 0
1363 -1304 6375 6376 0
1304 -1363 6375 6376 0
1425 1487 6376 -6377 0
-1425 -1487 6376 -6377 0
1425 -1487 -6376 -6377 0
1487 -1425 -6376 -6377 0
6377 -6376 -1425 -1487 0
1425 1487 -6376 6377 0
1487 -1425 6376 6377 0
1425 -1487 6376 6377 0
1549 1611 6377 -6378 0
-1549 -1611 6377 -6378 0
1549 -1611 -6377 -6378 0
1611 -1549 -6377 -6378 0
6378 -6377 -1549 -1611 0
1549 1611 -6377 6378 0
1611 -1549 6377 6378 0
1549 -1611 6377 6378 0
1628 5597 6378 -6379 0
-1628 -5597 6378 -6379 0
-1628 5597 -6378 -6379 0
1628 -5597 -6378 -6379 0
-1628 -5597 -6378 6379 0
1628 5597 -6378 6379 0
1628 -5597 6378 6379 0
-1628 5597 6378 6379 0
1690 6363 6379 -6380 0
-1690 -6363 6379 -6380 0
-1690 6363 -6379 -6380 0
1690 -6363 -6379 -6380 0
-1690 -6363 -6379 6380 0
1690 6363 -6379 6380 0
1690 -6363 6379 6380 0
-1690 6363 6379 6380 0
1752 5914 6380 -6381 0
-1752 -5914 6380 -6381 0
-1752 5914 -6380 -6381 0
1752 -5914 -6380 -6381 0
-1752 -5914 -6380 6381 0
1752 5914 -6380 6381 0
1752 -5914 6380 6381 0
-1752 5914 6380 6381 0
1814 6307 6381 -6382 0
-1814 6307 -6381 -6382 0
-1814 -6307 6381 -6382 0
1814 -6307 -6381 -6382 0
6382 -6307 -6381 -1814 0
1814 -6307 6381 6382 0
1814 6307 -6381 6382 0
-1814 6307 6381 6382 0
1876 6365 6382 -6383 0
-1876 -6365 6382 -6383 0
-1876 6365 -6382 -6383 0
1876 -6365 -6382 -6383 0
-1876 -6365 -6382 6383 0
1876 6365 -6382 6383 0
1876 -6365 6382 6383 0
-1876 6365 6382 6383 0
1938 6257 6383 -6384 0
-1938 -6257 6383 -6384 0
-1938 6257 -6383 -6384 0
1938 -6257 -6383 -6384 0
-1938 -6257 -6383 6384 0
1938 6257 -6383 6384 0
1938 -6257 6383 6384 0
-1938 6257 6383 6384 0
3970 6349 6384 0
6384 -6349 -3970 0
-3970 6349 -6384 0
3970 -6349 -6384 0
4106 -4156 -6385 0
4156 -4106 -6385 0
6385 -4106 -4156 0
6385 4106 4156 0
4206 4256 6385 -6386 0
6385 -4206 -4256 -6386 0
4206 -6385 -4256 -6386 0
4256 -6385 -4206 -6386 0
6386 -6385 -4206 -4256 0
4206 4256 -6385 6386 0
4256 6385 -4206 6386 0
4206 6385 -4256 6386 0
4306 4356 6386 -6387 0
6386 -4306 -4356 -6387 0
4306 -6386 -4356 -6387 0
4356 -6386 -4306 -6387 0
6387 -6386 -4306 -4356 0
4306 4356 -6386 6387 0
4356 6386 -4306 6387 0
4306 6386 -4356 6387 0
6387 -4374 -6388 0
4374 -6387 -6388 0
6388 -6387 -4374 0
4374 6387 6388 0
6330 -3658 -6389 0
3658 -6330 -6389 0
6389 -6330 -3658 0
3658 6330 6389 0
3737 3799 6389 -6390 0
6389 -3737 -3799 -6390 0
3737 -6389 -3799 -6390 0
3799 -6389 -3737 -6390 0
6390 -6389 -3737 -3799 0
3737 3799 -6389 6390 0
3799 6389 -3737 6390 0
3737 6389 -3799 6390 0
3861 3923 6390 -6391 0
6390 -3861 -3923 -6391 0
3861 -6390 -3923 -6391 0
3923 -6390 -3861 -6391 0
6391 -6390 -3861 -3923 0
3861 3923 -6390 6391 0
3923 6390 -3861 6391 0
3861 6390 -3923 6391 0
4088 3985 6391 -6392 0
6391 -3985 -4088 -6392 0
3985 -6391 -4088 -6392 0
4088 -6391 -3985 -6392 0
6392 -6391 -3985 -4088 0
4088 3985 -6391 6392 0
4088 6391 -3985 6392 0
3985 6391 -4088 6392 0
4138 4188 6392 -6393 0
6392 -4138 -4188 -6393 0
4138 -6392 -4188 -6393 0
4188 -6392 -4138 -6393 0
6393 -6392 -4138 -4188 0
4138 4188 -6392 6393 0
4188 6392 -4138 6393 0
4138 6392 -4188 6393 0
4103 -4153 -6394 0
4153 -4103 -6394 0
6394 -4103 -4153 0
6394 4103 4153 0
6394 -4174 -6395 0
4174 -6394 -6395 0
6395 -6394 -4174 0
4174 6394 6395 0
6395 -4224 -6396 0
4224 -6395 -6396 0
6396 -6395 -4224 0
4224 6395 6396 0
4238 6393 6396 -6397 0
-6393 6396 -4238 -6397 0
6393 -6396 -4238 -6397 0
4238 -6393 -6396 -6397 0
-6393 -6396 -4238 6397 0
4238 6393 -6396 6397 0
4238 -6393 6396 6397 0
6393 6396 -4238 6397 0
4276 4341 6397 -6398 0
6397 -4276 -4341 -6398 0
4276 -6397 -4341 -6398 0
4341 -6397 -4276 -6398 0
6398 -6397 -4276 -4341 0
4276 4341 -6397 6398 0
4341 6397 -4276 6398 0
4276 6397 -4341 6398 0
4388 6388 6398 -6399 0
-6388 6398 -4388 -6399 0
4388 -6388 -6398 -6399 0
6388 -6398 -4388 -6399 0
-6388 -6398 -4388 6399 0
4388 6388 -6398 6399 0
6388 6398 -4388 6399 0
4388 -6388 6398 6399 0
4426 4491 6399 -6400 0
6399 -4426 -4491 -6400 0
4426 -6399 -4491 -6400 0
4491 -6399 -4426 -6400 0
6400 -6399 -4426 -4491 0
4426 4491 -6399 6400 0
4491 6399 -4426 6400 0
4426 6399 -4491 6400 0
4541 4591 6400 -6401 0
6400 -4541 -4591 -6401 0
4541 -6400 -4591 -6401 0
4591 -6400 -4541 -6401 0
-6400 -4541 -4591 6401 0
4541 4591 -6400 6401 0
4591 6400 -4541 6401 0
4541 6400 -4591 6401 0
4641 4688 6401 -6402 0
6401 -4641 -4688 -6402 0
4641 -6401 -4688 -6402 0
4688 -6401 -4641 -6402 0
6402 -6401 -4641 -4688 0
4641 4688 -6401 6402 0
4688 6401 -4641 6402 0
4641 6401 -4688 6402 0
4738 4788 6402 -6403 0
6402 -4738 -4788 -6403 0
4738 -6402 -4788 -6403 0
4788 -6402 -4738 -6403 0
6403 -6402 -4738 -4788 0
4738 4788 -6402 6403 0
4788 6402 -4738 6403 0
4738 6402 -4788 6403 0
6403 -4824 -6404 0
4824 -6403 -6404 0
6404 -6403 -4824 0
4824 6403 6404 0
4888 4941 6404 -6405 0
6404 -4888 -4941 -6405 0
4888 -6404 -4941 -6405 0
4941 -6404 -4888 -6405 0
6405 -6404 -4888 -4941 0
4888 4941 -6404 6405 0
4941 6404 -4888 6405 0
4888 6404 -4941 6405 0
4988 5041 6405 -6406 0
6405 -4988 -5041 -6406 0
4988 -6405 -5041 -6406 0
5041 -6405 -4988 -6406 0
6406 -6405 -4988 -5041 0
4988 5041 -6405 6406 0
5041 6405 -4988 6406 0
4988 6405 -5041 6406 0
6406 -5074 -6407 0
5074 -6406 -6407 0
6407 -6406 -5074 0
5074 6406 6407 0
5141 5191 6407 -6408 0
6407 -5141 -5191 -6408 0
5141 -6407 -5191 -6408 0
5191 -6407 -5141 -6408 0
6408 -6407 -5141 -5191 0
5141 5191 -6407 6408 0
5191 6407 -5141 6408 0
5141 6407 -5191 6408 0
6147 -3534 -6409 0
3534 -6147 -6409 0
6409 -6147 -3534 0
3534 6147 6409 0
3610 3672 6409 -6410 0
6409 -3610 -3672 -6410 0
3610 -6409 -3672 -6410 0
3672 -6409 -3610 -6410 0
6410 -6409 -3610 -3672 0
3610 3672 -6409 6410 0
3672 6409 -3610 6410 0
3610 6409 -3672 6410 0
3734 3796 6410 -6411 0
6410 -3734 -3796 -6411 0
3734 -6410 -3796 -6411 0
3796 -6410 -3734 -6411 0
6411 -6410 -3734 -3796 0
3734 3796 -6410 6411 0
3796 6410 -3734 6411 0
3734 6410 -3796 6411 0
3858 3920 6411 -6412 0
6411 -3858 -3920 -6412 0
3858 -6411 -3920 -6412 0
3920 -6411 -3858 -6412 0
6412 -6411 -3858 -3920 0
3858 3920 -6411 6412 0
3920 6411 -3858 6412 0
3858 6411 -3920 6412 0
4085 3982 6412 -6413 0
6412 -3982 -4085 -6413 0
3982 -6412 -4085 -6413 0
4085 -6412 -3982 -6413 0
6413 -6412 -3982 -4085 0
4085 3982 -6412 6413 0
4085 6412 -3982 6413 0
3982 6412 -4085 6413 0
4135 4185 6413 -6414 0
6413 -4135 -4185 -6414 0
4135 -6413 -4185 -6414 0
4185 -6413 -4135 -6414 0
6414 -6413 -4135 -4185 0
4135 4185 -6413 6414 0
4185 6413 -4135 6414 0
4135 6413 -4185 6414 0
4235 4288 6414 -6415 0
6414 -4235 -4288 -6415 0
4235 -6414 -4288 -6415 0
4288 -6414 -4235 -6415 0
6415 -6414 -4235 -4288 0
4235 4288 -6414 6415 0
4288 6414 -4235 6415 0
4235 6414 -4288 6415 0
4338 6387 6415 -6416 0
6387 -6415 -4338 -6416 0
-6387 6415 -4338 -6416 0
4338 -6387 -6415 -6416 0
6416 -6387 -6415 -4338 0
4338 -6387 6415 6416 0
4338 6387 -6415 6416 0
6387 6415 -4338 6416 0
4376 4438 6416 -6417 0
6416 -4376 -4438 -6417 0
4376 -6416 -4438 -6417 0
4438 -6416 -4376 -6417 0
6417 -6416 -4376 -4438 0
4376 4438 -6416 6417 0
4438 6416 -4376 6417 0
4376 6416 -4438 6417 0
4488 4538 6417 -6418 0
6417 -4488 -4538 -6418 0
4488 -6417 -4538 -6418 0
4538 -6417 -4488 -6418 0
6418 -6417 -4488 -4538 0
4488 4538 -6417 6418 0
4538 6417 -4488 6418 0
4488 6417 -4538 6418 0
4588 4638 6418 -6419 0
6418 -4588 -4638 -6419 0
4588 -6418 -4638 -6419 0
4638 -6418 -4588 -6419 0
6419 -6418 -4588 -4638 0
4588 4638 -6418 6419 0
4638 6418 -4588 6419 0
4588 6418 -4638 6419 0
4685 4735 6419 -6420 0
6419 -4685 -4735 -6420 0
4685 -6419 -4735 -6420 0
4735 -6419 -4685 -6420 0
6420 -6419 -4685 -4735 0
4685 4735 -6419 6420 0
4735 6419 -4685 6420 0
4685 6419 -4735 6420 0
3038 3105 5701 -6421 0
5701 -3038 -3105 -6421 0
3038 -5701 -3105 -6421 0
3105 -5701 -3038 -6421 0
6421 -5701 -3038 -3105 0
3038 3105 -5701 6421 0
3105 5701 -3038 6421 0
3038 5701 -3105 6421 0
3167 3229 6421 -6422 0
6421 -3167 -3229 -6422 0
3167 -6421 -3229 -6422 0
3229 -6421 -3167 -6422 0
6422 -6421 -3167 -3229 0
3167 3229 -6421 6422 0
3229 6421 -3167 6422 0
3167 6421 -3229 6422 0
3291 3353 6422 -6423 0
6422 -3291 -3353 -6423 0
3291 -6422 -3353 -6423 0
3353 -6422 -3291 -6423 0
6423 -6422 -3291 -3353 0
3291 3353 -6422 6423 0
3353 6422 -3291 6423 0
3291 6422 -3353 6423 0
3415 3477 6423 -6424 0
6423 -3415 -3477 -6424 0
3415 -6423 -3477 -6424 0
3477 -6423 -3415 -6424 0
6424 -6423 -3415 -3477 0
3415 3477 -6423 6424 0
3477 6423 -3415 6424 0
3415 6423 -3477 6424 0
3539 3601 6424 -6425 0
6424 -3539 -3601 -6425 0
3539 -6424 -3601 -6425 0
3601 -6424 -3539 -6425 0
6425 -6424 -3539 -3601 0
3539 3601 -6424 6425 0
3601 6424 -3539 6425 0
3539 6424 -3601 6425 0
3663 3725 6425 -6426 0
6425 -3663 -3725 -6426 0
3663 -6425 -3725 -6426 0
3725 -6425 -3663 -6426 0
6426 -6425 -3663 -3725 0
3663 3725 -6425 6426 0
3725 6425 -3663 6426 0
3663 6425 -3725 6426 0
3787 3849 6426 -6427 0
6426 -3787 -3849 -6427 0
3787 -6426 -3849 -6427 0
3849 -6426 -3787 -6427 0
6427 -6426 -3787 -3849 0
3787 3849 -6426 6427 0
3849 6426 -3787 6427 0
3787 6426 -3849 6427 0
3911 3973 6427 -6428 0
6427 -3911 -3973 -6428 0
3911 -6427 -3973 -6428 0
3973 -6427 -3911 -6428 0
6428 -6427 -3911 -3973 0
3911 3973 -6427 6428 0
3973 6427 -3911 6428 0
3911 6427 -3973 6428 0
4076 4129 6428 -6429 0
6428 -4076 -4129 -6429 0
4076 -6428 -4129 -6429 0
4129 -6428 -4076 -6429 0
6429 -6428 -4076 -4129 0
4076 4129 -6428 6429 0
4129 6428 -4076 6429 0
4076 6428 -4129 6429 0
4179 4229 6429 -6430 0
6429 -4179 -4229 -6430 0
4179 -6429 -4229 -6430 0
4229 -6429 -4179 -6430 0
6430 -6429 -4179 -4229 0
4179 4229 -6429 6430 0
4229 6429 -4179 6430 0
4179 6429 -4229 6430 0
4279 4329 6430 -6431 0
6430 -4279 -4329 -6431 0
4279 -6430 -4329 -6431 0
4329 -6430 -4279 -6431 0
6431 -6430 -4279 -4329 0
4279 4329 -6430 6431 0
4329 6430 -4279 6431 0
4279 6430 -4329 6431 0
4379 4429 6431 -6432 0
6431 -4379 -4429 -6432 0
4379 -6431 -4429 -6432 0
4429 -6431 -4379 -6432 0
6432 -6431 -4379 -4429 0
4379 4429 -6431 6432 0
4429 6431 -4379 6432 0
4379 6431 -4429 6432 0
4479 4529 6432 -6433 0
6432 -4479 -4529 -6433 0
4479 -6432 -4529 -6433 0
4529 -6432 -4479 -6433 0
6433 -6432 -4479 -4529 0
4479 4529 -6432 6433 0
4529 6432 -4479 6433 0
4479 6432 -4529 6433 0
4579 4629 6433 -6434 0
6433 -4579 -4629 -6434 0
4579 -6433 -4629 -6434 0
4629 -6433 -4579 -6434 0
6434 -6433 -4579 -4629 0
4579 4629 -6433 6434 0
4629 6433 -4579 6434 0
4579 6433 -4629 6434 0
4112 4069 4162 -6435 0
4069 -4112 -4162 -6435 0
4112 -4069 -4162 -6435 0
4162 -4069 -4112 -6435 0
-4069 -4112 -4162 6435 0
4112 4162 -4069 6435 0
4069 4162 -4112 6435 0
4112 4069 -4162 6435 0
4212 4262 6435 -6436 0
6435 -4212 -4262 -6436 0
4212 -6435 -4262 -6436 0
4262 -6435 -4212 -6436 0
6436 -6435 -4212 -4262 0
4212 4262 -6435 6436 0
4262 6435 -4212 6436 0
4212 6435 -4262 6436 0
4312 4362 6436 -6437 0
6436 -4312 -4362 -6437 0
4312 -6436 -4362 -6437 0
4362 -6436 -4312 -6437 0
6437 -6436 -4312 -4362 0
4312 4362 -6436 6437 0
4362 6436 -4312 6437 0
4312 6436 -4362 6437 0
4412 4462 6437 -6438 0
6437 -4412 -4462 -6438 0
4412 -6437 -4462 -6438 0
4462 -6437 -4412 -6438 0
6438 -6437 -4412 -4462 0
4412 4462 -6437 6438 0
4462 6437 -4412 6438 0
4412 6437 -4462 6438 0
4512 4562 6438 -6439 0
6438 -4512 -4562 -6439 0
4512 -6438 -4562 -6439 0
4562 -6438 -4512 -6439 0
6439 -6438 -4512 -4562 0
4512 4562 -6438 6439 0
4562 6438 -4512 6439 0
4512 6438 -4562 6439 0
4612 4662 6439 -6440 0
6439 -4612 -4662 -6440 0
4612 -6439 -4662 -6440 0
4662 -6439 -4612 -6440 0
6440 -6439 -4612 -4662 0
4612 4662 -6439 6440 0
4662 6439 -4612 6440 0
4612 6439 -4662 6440 0
4676 6434 6440 -6441 0
-6434 6440 -4676 -6441 0
6434 -6440 -4676 -6441 0
4676 -6434 -6440 -6441 0
-6434 -6440 -4676 6441 0
4676 6434 -6440 6441 0
4676 -6434 6440 6441 0
6434 6440 -4676 6441 0
5677 -3162 -6442 0
3162 -5677 -6442 0
6442 -5677 -3162 0
3162 5677 6442 0
3232 3294 6442 -6443 0
6442 -3232 -3294 -6443 0
3232 -6442 -3294 -6443 0
3294 -6442 -3232 -6443 0
6443 -6442 -3232 -3294 0
3232 3294 -6442 6443 0
3294 6442 -3232 6443 0
3232 6442 -3294 6443 0
3356 3418 6443 -6444 0
6443 -3356 -3418 -6444 0
3356 -6443 -3418 -6444 0
3418 -6443 -3356 -6444 0
6444 -6443 -3356 -3418 0
3356 3418 -6443 6444 0
3418 6443 -3356 6444 0
3356 6443 -3418 6444 0
3480 3542 6444 -6445 0
6444 -3480 -3542 -6445 0
3480 -6444 -3542 -6445 0
3542 -6444 -3480 -6445 0
6445 -6444 -3480 -3542 0
3480 3542 -6444 6445 0
3542 6444 -3480 6445 0
3480 6444 -3542 6445 0
3604 3666 6445 -6446 0
6445 -3604 -3666 -6446 0
3604 -6445 -3666 -6446 0
3666 -6445 -3604 -6446 0
6446 -6445 -3604 -3666 0
3604 3666 -6445 6446 0
3666 6445 -3604 6446 0
3604 6445 -3666 6446 0
3728 3790 6446 -6447 0
6446 -3728 -3790 -6447 0
3728 -6446 -3790 -6447 0
3790 -6446 -3728 -6447 0
6447 -6446 -3728 -3790 0
3728 3790 -6446 6447 0
3790 6446 -3728 6447 0
3728 6446 -3790 6447 0
3852 3914 6447 -6448 0
6447 -3852 -3914 -6448 0
3852 -6447 -3914 -6448 0
3914 -6447 -3852 -6448 0
6448 -6447 -3852 -3914 0
3852 3914 -6447 6448 0
3914 6447 -3852 6448 0
3852 6447 -3914 6448 0
4079 3976 6448 -6449 0
6448 -3976 -4079 -6449 0
3976 -6448 -4079 -6449 0
4079 -6448 -3976 -6449 0
6449 -6448 -3976 -4079 0
4079 3976 -6448 6449 0
4079 6448 -3976 6449 0
3976 6448 -4079 6449 0
4074 4126 6449 -6450 0
6449 -4074 -4126 -6450 0
4074 -6449 -4126 -6450 0
4126 -6449 -4074 -6450 0
6450 -6449 -4074 -4126 0
4074 4126 -6449 6450 0
4126 6449 -4074 6450 0
4074 6449 -4126 6450 0
4176 6394 6450 -6451 0
-6394 6450 -4176 -6451 0
6394 -6450 -4176 -6451 0
4176 -6394 -6450 -6451 0
-6394 -6450 -4176 6451 0
4176 6394 -6450 6451 0
4176 -6394 6450 6451 0
6394 6450 -4176 6451 0
4232 4282 6451 -6452 0
6451 -4232 -4282 -6452 0
4232 -6451 -4282 -6452 0
4282 -6451 -4232 -6452 0
6452 -6451 -4232 -4282 0
4232 4282 -6451 6452 0
4282 6451 -4232 6452 0
4232 6451 -4282 6452 0
4332 4382 6452 -6453 0
6452 -4332 -4382 -6453 0
4332 -6452 -4382 -6453 0
4382 -6452 -4332 -6453 0
6453 -6452 -4332 -4382 0
4332 4382 -6452 6453 0
4382 6452 -4332 6453 0
4332 6452 -4382 6453 0
4432 4482 6453 -6454 0
6453 -4432 -4482 -6454 0
4432 -6453 -4482 -6454 0
4482 -6453 -4432 -6454 0
6454 -6453 -4432 -4482 0
4432 4482 -6453 6454 0
4482 6453 -4432 6454 0
4432 6453 -4482 6454 0
4532 4582 6454 -6455 0
6454 -4532 -4582 -6455 0
4532 -6454 -4582 -6455 0
4582 -6454 -4532 -6455 0
-6454 -4532 -4582 6455 0
4532 4582 -6454 6455 0
4582 6454 -4532 6455 0
4532 6454 -4582 6455 0
4632 4679 6455 -6456 0
6455 -4632 -4679 -6456 0
4632 -6455 -4679 -6456 0
4679 -6455 -4632 -6456 0
6456 -6455 -4632 -4679 0
4632 4679 -6455 6456 0
4679 6455 -4632 6456 0
4632 6455 -4679 6456 0
4726 6441 6456 -6457 0
-6441 6456 -4726 -6457 0
6441 -6456 -4726 -6457 0
4726 -6441 -6456 -6457 0
-6441 -6456 -4726 6457 0
4726 6441 -6456 6457 0
4726 -6441 6456 6457 0
6441 6456 -4726 6457 0
4776 6420 6457 -6458 0
-6420 6457 -4776 -6458 0
6420 -6457 -4776 -6458 0
4776 -6420 -6457 -6458 0
-6420 -6457 -4776 6458 0
4776 6420 -6457 6458 0
4776 -6420 6457 6458 0
6420 6457 -4776 6458 0
4826 6403 6458 -6459 0
6403 -6458 -4826 -6459 0
-6403 6458 -4826 -6459 0
4826 -6403 -6458 -6459 0
6459 -6403 -6458 -4826 0
4826 -6403 6458 6459 0
4826 6403 -6458 6459 0
6403 6458 -4826 6459 0
4915 4965 6459 -6460 0
6459 -4915 -4965 -6460 0
4915 -6459 -4965 -6460 0
4965 -6459 -4915 -6460 0
6460 -6459 -4915 -4965 0
4915 4965 -6459 6460 0
4965 6459 -4915 6460 0
4915 6459 -4965 6460 0
5015 5065 6460 -6461 0
6460 -5015 -5065 -6461 0
5015 -6460 -5065 -6461 0
5065 -6460 -5015 -6461 0
6461 -6460 -5015 -5065 0
5015 5065 -6460 6461 0
5065 6460 -5015 6461 0
5015 6460 -5065 6461 0
5115 5165 6461 -6462 0
6461 -5115 -5165 -6462 0
5115 -6461 -5165 -6462 0
5165 -6461 -5115 -6462 0
6462 -6461 -5115 -5165 0
5115 5165 -6461 6462 0
5165 6461 -5115 6462 0
5115 6461 -5165 6462 0
5215 5265 6462 -6463 0
6462 -5215 -5265 -6463 0
5215 -6462 -5265 -6463 0
5265 -6462 -5215 -6463 0
6463 -6462 -5215 -5265 0
5215 5265 -6462 6463 0
5265 6462 -5215 6463 0
5215 6462 -5265 6463 0
4109 -4159 -6464 0
4159 -4109 -6464 0
6464 -4109 -4159 0
6464 4109 4159 0
4209 4259 6464 -6465 0
6464 -4209 -4259 -6465 0
4209 -6464 -4259 -6465 0
4259 -6464 -4209 -6465 0
6465 -6464 -4209 -4259 0
4209 4259 -6464 6465 0
4259 6464 -4209 6465 0
4209 6464 -4259 6465 0
4309 4359 6465 -6466 0
6465 -4309 -4359 -6466 0
4309 -6465 -4359 -6466 0
4359 -6465 -4309 -6466 0
6466 -6465 -4309 -4359 0
4309 4359 -6465 6466 0
4359 6465 -4309 6466 0
4309 6465 -4359 6466 0
4409 4459 6466 -6467 0
6466 -4409 -4459 -6467 0
4409 -6466 -4459 -6467 0
4459 -6466 -4409 -6467 0
6467 -6466 -4409 -4459 0
4409 4459 -6466 6467 0
4459 6466 -4409 6467 0
4409 6466 -4459 6467 0
4509 4559 6467 -6468 0
6467 -4509 -4559 -6468 0
4509 -6467 -4559 -6468 0
4559 -6467 -4509 -6468 0
6468 -6467 -4509 -4559 0
4509 4559 -6467 6468 0
4559 6467 -4509 6468 0
4509 6467 -4559 6468 0
6388 -4424 -6469 0
4424 -6388 -6469 0
6469 -6388 -4424 0
4424 6388 6469 0
6469 -4474 -6470 0
4474 -6469 -6470 0
6470 -6469 -4474 0
4474 6469 6470 0
6324 -3844 -6471 0
3844 -6324 -6471 0
6471 -6324 -3844 0
3844 6324 6471 0
3932 3994 6471 -6472 0
6471 -3932 -3994 -6472 0
3932 -6471 -3994 -6472 0
3994 -6471 -3932 -6472 0
6472 -6471 -3932 -3994 0
3932 3994 -6471 6472 0
3994 6471 -3932 6472 0
3932 6471 -3994 6472 0
4097 4147 6472 -6473 0
6472 -4097 -4147 -6473 0
4097 -6472 -4147 -6473 0
4147 -6472 -4097 -6473 0
6473 -6472 -4097 -4147 0
4097 4147 -6472 6473 0
4147 6472 -4097 6473 0
4097 6472 -4147 6473 0
4197 4247 6473 -6474 0
6473 -4197 -4247 -6474 0
4197 -6473 -4247 -6474 0
4247 -6473 -4197 -6474 0
6474 -6473 -4197 -4247 0
4197 4247 -6473 6474 0
4247 6473 -4197 6474 0
4197 6473 -4247 6474 0
4297 4347 6474 -6475 0
6474 -4297 -4347 -6475 0
4297 -6474 -4347 -6475 0
4347 -6474 -4297 -6475 0
6475 -6474 -4297 -4347 0
4297 4347 -6474 6475 0
4347 6474 -4297 6475 0
4297 6474 -4347 6475 0
4397 4447 6475 -6476 0
6475 -4397 -4447 -6476 0
4397 -6475 -4447 -6476 0
4447 -6475 -4397 -6476 0
6476 -6475 -4397 -4447 0
4397 4447 -6475 6476 0
4447 6475 -4397 6476 0
4397 6475 -4447 6476 0
4497 6470 6476 -6477 0
-6470 6476 -4497 -6477 0
4497 -6470 -6476 -6477 0
6470 -6476 -4497 -6477 0
-6470 -6476 -4497 6477 0
4497 6470 -6476 6477 0
6470 6476 -4497 6477 0
4497 -6470 6476 6477 0
4526 6468 6477 -6478 0
-6468 6477 -4526 -6478 0
4526 -6468 -6477 -6478 0
6468 -6477 -4526 -6478 0
-6468 -6477 -4526 6478 0
4526 6468 -6477 6478 0
6468 6477 -4526 6478 0
4526 -6468 6477 6478 0
4576 4650 6478 -6479 0
6478 -4576 -4650 -6479 0
4576 -6478 -4650 -6479 0
4650 -6478 -4576 -6479 0
6479 -6478 -4576 -4650 0
4576 4650 -6478 6479 0
4650 6478 -4576 6479 0
4576 6478 -4650 6479 0
4697 4747 6479 -6480 0
6479 -4697 -4747 -6480 0
4697 -6479 -4747 -6480 0
4747 -6479 -4697 -6480 0
6480 -6479 -4697 -4747 0
4697 4747 -6479 6480 0
4747 6479 -4697 6480 0
4697 6479 -4747 6480 0
4797 4847 6480 -6481 0
6480 -4797 -4847 -6481 0
4797 -6480 -4847 -6481 0
4847 -6480 -4797 -6481 0
6481 -6480 -4797 -4847 0
4797 4847 -6480 6481 0
4847 6480 -4797 6481 0
4797 6480 -4847 6481 0
4897 4947 6481 -6482 0
6481 -4897 -4947 -6482 0
4897 -6481 -4947 -6482 0
4947 -6481 -4897 -6482 0
6482 -6481 -4897 -4947 0
4897 4947 -6481 6482 0
4947 6481 -4897 6482 0
4897 6481 -4947 6482 0
4997 5047 6482 -6483 0
6482 -4997 -5047 -6483 0
4997 -6482 -5047 -6483 0
5047 -6482 -4997 -6483 0
6483 -6482 -4997 -5047 0
4997 5047 -6482 6483 0
5047 6482 -4997 6483 0
4997 6482 -5047 6483 0
5097 5147 6483 -6484 0
6483 -5097 -5147 -6484 0
5097 -6483 -5147 -6484 0
5147 -6483 -5097 -6484 0
6484 -6483 -5097 -5147 0
5097 5147 -6483 6484 0
5147 6483 -5097 6484 0
5097 6483 -5147 6484 0
6396 -4274 -6485 0
4274 -6396 -6485 0
6485 -6396 -4274 0
4274 6396 6485 0
3782 3864 6327 -6486 0
6327 -3782 -3864 -6486 0
3782 -6327 -3864 -6486 0
3864 -6327 -3782 -6486 0
6486 -6327 -3782 -3864 0
3782 3864 -6327 6486 0
3864 6327 -3782 6486 0
3782 6327 -3864 6486 0
3926 3988 6486 -6487 0
6486 -3926 -3988 -6487 0
3926 -6486 -3988 -6487 0
3988 -6486 -3926 -6487 0
6487 -6486 -3926 -3988 0
3926 3988 -6486 6487 0
3988 6486 -3926 6487 0
3926 6486 -3988 6487 0
4091 4141 6487 -6488 0
6487 -4091 -4141 -6488 0
4091 -6487 -4141 -6488 0
4141 -6487 -4091 -6488 0
6488 -6487 -4091 -4141 0
4091 4141 -6487 6488 0
4141 6487 -4091 6488 0
4091 6487 -4141 6488 0
4191 4241 6488 -6489 0
6488 -4191 -4241 -6489 0
4191 -6488 -4241 -6489 0
4241 -6488 -4191 -6489 0
6489 -6488 -4191 -4241 0
4191 4241 -6488 6489 0
4241 6488 -4191 6489 0
4191 6488 -4241 6489 0
4291 6485 6489 -6490 0
-6485 6489 -4291 -6490 0
4291 -6485 -6489 -6490 0
6485 -6489 -4291 -6490 0
-6485 -6489 -4291 6490 0
4291 6485 -6489 6490 0
6485 6489 -4291 6490 0
4291 -6485 6489 6490 0
4326 4391 6490 -6491 0
6490 -4326 -4391 -6491 0
4326 -6490 -4391 -6491 0
4391 -6490 -4326 -6491 0
6491 -6490 -4326 -4391 0
4326 4391 -6490 6491 0
4391 6490 -4326 6491 0
4326 6490 -4391 6491 0
4441 4494 6491 -6492 0
6491 -4441 -4494 -6492 0
4441 -6491 -4494 -6492 0
4494 -6491 -4441 -6492 0
6492 -6491 -4441 -4494 0
4441 4494 -6491 6492 0
4494 6491 -4441 6492 0
4441 6491 -4494 6492 0
4544 4594 6492 -6493 0
6492 -4544 -4594 -6493 0
4544 -6492 -4594 -6493 0
4594 -6492 -4544 -6493 0
-6492 -4544 -4594 6493 0
4544 4594 -6492 6493 0
4594 6492 -4544 6493 0
4544 6492 -4594 6493 0
4644 4691 6493 -6494 0
6493 -4644 -4691 -6494 0
4644 -6493 -4691 -6494 0
4691 -6493 -4644 -6494 0
6494 -6493 -4644 -4691 0
4644 4691 -6493 6494 0
4691 6493 -4644 6494 0
4644 6493 -4691 6494 0
4741 4791 6494 -6495 0
6494 -4741 -4791 -6495 0
4741 -6494 -4791 -6495 0
4791 -6494 -4741 -6495 0
6495 -6494 -4741 -4791 0
4741 4791 -6494 6495 0
4791 6494 -4741 6495 0
4741 6494 -4791 6495 0
4841 4891 6495 -6496 0
6495 -4841 -4891 -6496 0
4841 -6495 -4891 -6496 0
4891 -6495 -4841 -6496 0
6496 -6495 -4841 -4891 0
4841 4891 -6495 6496 0
4891 6495 -4841 6496 0
4841 6495 -4891 6496 0
4924 4991 6496 -6497 0
6496 -4924 -4991 -6497 0
4924 -6496 -4991 -6497 0
4991 -6496 -4924 -6497 0
6497 -6496 -4924 -4991 0
4924 4991 -6496 6497 0
4991 6496 -4924 6497 0
4924 6496 -4991 6497 0
5044 5091 6497 -6498 0
6497 -5044 -5091 -6498 0
5044 -6497 -5091 -6498 0
5091 -6497 -5044 -6498 0
6498 -6497 -5044 -5091 0
5044 5091 -6497 6498 0
5091 6497 -5044 6498 0
5044 6497 -5091 6498 0
4072 4121 4171 -6499 0
4072 -4121 -4171 -6499 0
4121 -4072 -4171 -6499 0
4171 -4072 -4121 -6499 0
-4072 -4121 -4171 6499 0
4121 4171 -4072 6499 0
4072 4171 -4121 6499 0
4072 4121 -4171 6499 0
4221 4271 6499 -6500 0
6499 -4221 -4271 -6500 0
4221 -6499 -4271 -6500 0
4271 -6499 -4221 -6500 0
6500 -6499 -4221 -4271 0
4221 4271 -6499 6500 0
4271 6499 -4221 6500 0
4221 6499 -4271 6500 0
4321 4371 6500 -6501 0
6500 -4321 -4371 -6501 0
4321 -6500 -4371 -6501 0
4371 -6500 -4321 -6501 0
6501 -6500 -4321 -4371 0
4321 4371 -6500 6501 0
4371 6500 -4321 6501 0
4321 6500 -4371 6501 0
4421 4471 6501 -6502 0
6501 -4421 -4471 -6502 0
4421 -6501 -4471 -6502 0
4471 -6501 -4421 -6502 0
6502 -6501 -4421 -4471 0
4421 4471 -6501 6502 0
4471 6501 -4421 6502 0
4421 6501 -4471 6502 0
4521 4571 6502 -6503 0
6502 -4521 -4571 -6503 0
4521 -6502 -4571 -6503 0
4571 -6502 -4521 -6503 0
6503 -6502 -4521 -4571 0
4521 4571 -6502 6503 0
4571 6502 -4521 6503 0
4521 6502 -4571 6503 0
4621 4671 6503 -6504 0
6503 -4621 -4671 -6504 0
4621 -6503 -4671 -6504 0
4671 -6503 -4621 -6504 0
6504 -6503 -4621 -4671 0
4621 4671 -6503 6504 0
4671 6503 -4621 6504 0
4621 6503 -4671 6504 0
4721 4771 6504 -6505 0
6504 -4721 -4771 -6505 0
4721 -6504 -4771 -6505 0
4771 -6504 -4721 -6505 0
6505 -6504 -4721 -4771 0
4721 4771 -6504 6505 0
4771 6504 -4721 6505 0
4721 6504 -4771 6505 0
4821 4871 6505 -6506 0
6505 -4821 -4871 -6506 0
4821 -6505 -4871 -6506 0
4871 -6505 -4821 -6506 0
6506 -6505 -4821 -4871 0
4821 4871 -6505 6506 0
4871 6505 -4821 6506 0
4821 6505 -4871 6506 0
4921 4971 6506 -6507 0
6506 -4921 -4971 -6507 0
4921 -6506 -4971 -6507 0
4971 -6506 -4921 -6507 0
6507 -6506 -4921 -4971 0
4921 4971 -6506 6507 0
4971 6506 -4921 6507 0
4921 6506 -4971 6507 0
5021 5071 6507 -6508 0
6507 -5021 -5071 -6508 0
5021 -6507 -5071 -6508 0
5071 -6507 -5021 -6508 0
6508 -6507 -5021 -5071 0
5021 5071 -6507 6508 0
5071 6507 -5021 6508 0
5021 6507 -5071 6508 0
5076 6406 6508 -6509 0
-6406 6508 -5076 -6509 0
6406 -6508 -5076 -6509 0
5076 -6406 -6508 -6509 0
-6406 -6508 -5076 6509 0
5076 6406 -6508 6509 0
5076 -6406 6508 6509 0
6406 6508 -5076 6509 0
5126 6498 6509 -6510 0
-6498 6509 -5126 -6510 0
6498 -6509 -5126 -6510 0
5126 -6498 -6509 -6510 0
-6498 -6509 -5126 6510 0
5126 6498 -6509 6510 0
5126 -6498 6509 6510 0
6498 6509 -5126 6510 0
5176 6484 6510 -6511 0
-6484 6510 -5176 -6511 0
6484 -6510 -5176 -6511 0
5176 -6484 -6510 -6511 0
-6484 -6510 -5176 6511 0
5176 6484 -6510 6511 0
5176 -6484 6510 6511 0
6484 6510 -5176 6511 0
6468 -4574 -6512 0
4574 -6468 -6512 0
6512 -6468 -4574 0
4574 6468 6512 0
6274 -3968 -6513 0
3968 -6274 -6513 0
6513 -6274 -3968 0
3968 6274 6513 0
4100 4150 6513 -6514 0
6513 -4100 -4150 -6514 0
4100 -6513 -4150 -6514 0
4150 -6513 -4100 -6514 0
6514 -6513 -4100 -4150 0
4100 4150 -6513 6514 0
4150 6513 -4100 6514 0
4100 6513 -4150 6514 0
4200 4250 6514 -6515 0
6514 -4200 -4250 -6515 0
4200 -6514 -4250 -6515 0
4250 -6514 -4200 -6515 0
6515 -6514 -4200 -4250 0
4200 4250 -6514 6515 0
4250 6514 -4200 6515 0
4200 6514 -4250 6515 0
4300 4350 6515 -6516 0
6515 -4300 -4350 -6516 0
4300 -6515 -4350 -6516 0
4350 -6515 -4300 -6516 0
6516 -6515 -4300 -4350 0
4300 4350 -6515 6516 0
4350 6515 -4300 6516 0
4300 6515 -4350 6516 0
4400 4450 6516 -6517 0
6516 -4400 -4450 -6517 0
4400 -6516 -4450 -6517 0
4450 -6516 -4400 -6517 0
6517 -6516 -4400 -4450 0
4400 4450 -6516 6517 0
4450 6516 -4400 6517 0
4400 6516 -4450 6517 0
4500 4550 6517 -6518 0
6517 -4500 -4550 -6518 0
4500 -6517 -4550 -6518 0
4550 -6517 -4500 -6518 0
6518 -6517 -4500 -4550 0
4500 4550 -6517 6518 0
4550 6517 -4500 6518 0
4500 6517 -4550 6518 0
4600 6512 6518 -6519 0
-6512 6518 -4600 -6519 0
4600 -6512 -6518 -6519 0
6512 -6518 -4600 -6519 0
-6512 -6518 -4600 6519 0
4600 6512 -6518 6519 0
6512 6518 -4600 6519 0
4600 -6512 6518 6519 0
4626 4700 6519 -6520 0
6519 -4626 -4700 -6520 0
4626 -6519 -4700 -6520 0
4700 -6519 -4626 -6520 0
6520 -6519 -4626 -4700 0
4626 4700 -6519 6520 0
4700 6519 -4626 6520 0
4626 6519 -4700 6520 0
4750 4800 6520 -6521 0
6520 -4750 -4800 -6521 0
4750 -6520 -4800 -6521 0
4800 -6520 -4750 -6521 0
6521 -6520 -4750 -4800 0
4750 4800 -6520 6521 0
4800 6520 -4750 6521 0
4750 6520 -4800 6521 0
4850 4900 6521 -6522 0
6521 -4850 -4900 -6522 0
4850 -6521 -4900 -6522 0
4900 -6521 -4850 -6522 0
6522 -6521 -4850 -4900 0
4850 4900 -6521 6522 0
4900 6521 -4850 6522 0
4850 6521 -4900 6522 0
4950 5000 6522 -6523 0
6522 -4950 -5000 -6523 0
4950 -6522 -5000 -6523 0
5000 -6522 -4950 -6523 0
6523 -6522 -4950 -5000 0
4950 5000 -6522 6523 0
5000 6522 -4950 6523 0
4950 6522 -5000 6523 0
5050 5100 6523 -6524 0
6523 -5050 -5100 -6524 0
5050 -6523 -5100 -6524 0
5100 -6523 -5050 -6524 0
6524 -6523 -5050 -5100 0
5050 5100 -6523 6524 0
5100 6523 -5050 6524 0
5050 6523 -5100 6524 0
5150 5200 6524 -6525 0
6524 -5150 -5200 -6525 0
5150 -6524 -5200 -6525 0
5200 -6524 -5150 -6525 0
6525 -6524 -5150 -5200 0
5150 5200 -6524 6525 0
5200 6524 -5150 6525 0
5150 6524 -5200 6525 0
5226 6511 6525 -6526 0
-6511 6525 -5226 -6526 0
6511 -6525 -5226 -6526 0
5226 -6511 -6525 -6526 0
-6511 -6525 -5226 6526 0
5226 6511 -6525 6526 0
5226 -6511 6525 6526 0
6511 6525 -5226 6526 0
6526 6527 0
6463 6527 0
-6463 -6526 -6527 0
2088 -2150 -6528 0
2150 -2088 -6528 0
6528 -2088 -2150 0
6528 2088 2150 0
2212 2277 6528 -6529 0
6528 -2212 -2277 -6529 0
2212 -6528 -2277 -6529 0
2277 -6528 -2212 -6529 0
6529 -6528 -2212 -2277 0
2212 2277 -6528 6529 0
2277 6528 -2212 6529 0
2212 6528 -2277 6529 0
2336 2398 6529 -6530 0
6529 -2336 -2398 -6530 0
2336 -6529 -2398 -6530 0
2398 -6529 -2336 -6530 0
6530 -6529 -2336 -2398 0
2336 2398 -6529 6530 0
2398 6529 -2336 6530 0
2336 6529 -2398 6530 0
2463 2522 6530 -6531 0
6530 -2463 -2522 -6531 0
2463 -6530 -2522 -6531 0
2522 -6530 -2463 -6531 0
6531 -6530 -2463 -2522 0
2463 2522 -6530 6531 0
2522 6530 -2463 6531 0
2463 6530 -2522 6531 0
2584 2649 6531 -6532 0
6531 -2584 -2649 -6532 0
2584 -6531 -2649 -6532 0
2649 -6531 -2584 -6532 0
6532 -6531 -2584 -2649 0
2584 2649 -6531 6532 0
2649 6531 -2584 6532 0
2584 6531 -2649 6532 0
2708 2770 6532 -6533 0
6532 -2708 -2770 -6533 0
2708 -6532 -2770 -6533 0
2770 -6532 -2708 -6533 0
6533 -6532 -2708 -2770 0
2708 2770 -6532 6533 0
2770 6532 -2708 6533 0
2708 6532 -2770 6533 0
2835 2894 6533 -6534 0
6533 -2835 -2894 -6534 0
2835 -6533 -2894 -6534 0
2894 -6533 -2835 -6534 0
6534 -6533 -2835 -2894 0
2835 2894 -6533 6534 0
2894 6533 -2835 6534 0
2835 6533 -2894 6534 0
2956 3018 6534 -6535 0
6534 -2956 -3018 -6535 0
2956 -6534 -3018 -6535 0
3018 -6534 -2956 -6535 0
6535 -6534 -2956 -3018 0
2956 3018 -6534 6535 0
3018 6534 -2956 6535 0
2956 6534 -3018 6535 0
3080 3145 6535 -6536 0
6535 -3080 -3145 -6536 0
3080 -6535 -3145 -6536 0
3145 -6535 -3080 -6536 0
6536 -6535 -3080 -3145 0
3080 3145 -6535 6536 0
3145 6535 -3080 6536 0
3080 6535 -3145 6536 0
3204 3266 6536 -6537 0
6536 -3204 -3266 -6537 0
3204 -6536 -3266 -6537 0
3266 -6536 -3204 -6537 0
6537 -6536 -3204 -3266 0
3204 3266 -6536 6537 0
3266 6536 -3204 6537 0
3204 6536 -3266 6537 0
3331 3390 6537 -6538 0
6537 -3331 -3390 -6538 0
3331 -6537 -3390 -6538 0
3390 -6537 -3331 -6538 0
6538 -6537 -3331 -3390 0
3331 3390 -6537 6538 0
3390 6537 -3331 6538 0
3331 6537 -3390 6538 0
6538 -3413 -6539 0
3413 -6538 -6539 0
6539 -6538 -3413 0
3413 6538 6539 0
2483 2560 5782 -6540 0
5782 -2483 -2560 -6540 0
2483 -5782 -2560 -6540 0
2560 -5782 -2483 -6540 0
6540 -5782 -2483 -2560 0
2483 2560 -5782 6540 0
2560 5782 -2483 6540 0
2483 5782 -2560 6540 0
2625 2684 6540 -6541 0
6540 -2625 -2684 -6541 0
2625 -6540 -2684 -6541 0
2684 -6540 -2625 -6541 0
-6540 -2625 -2684 6541 0
2625 2684 -6540 6541 0
2684 6540 -2625 6541 0
2625 6540 -2684 6541 0
2749 2811 6541 -6542 0
6541 -2749 -2811 -6542 0
2749 -6541 -2811 -6542 0
2811 -6541 -2749 -6542 0
6542 -6541 -2749 -2811 0
2749 2811 -6541 6542 0
2811 6541 -2749 6542 0
2749 6541 -2811 6542 0
2873 2935 6542 -6543 0
6542 -2873 -2935 -6543 0
2873 -6542 -2935 -6543 0
2935 -6542 -2873 -6543 0
6543 -6542 -2873 -2935 0
2873 2935 -6542 6543 0
2935 6542 -2873 6543 0
2873 6542 -2935 6543 0
2997 3056 6543 -6544 0
6543 -2997 -3056 -6544 0
2997 -6543 -3056 -6544 0
3056 -6543 -2997 -6544 0
6544 -6543 -2997 -3056 0
2997 3056 -6543 6544 0
3056 6543 -2997 6544 0
2997 6543 -3056 6544 0
3121 3180 6544 -6545 0
6544 -3121 -3180 -6545 0
3121 -6544 -3180 -6545 0
3180 -6544 -3121 -6545 0
6545 -6544 -3121 -3180 0
3121 3180 -6544 6545 0
3180 6544 -3121 6545 0
3121 6544 -3180 6545 0
3242 3307 6545 -6546 0
6545 -3242 -3307 -6546 0
3242 -6545 -3307 -6546 0
3307 -6545 -3242 -6546 0
6546 -6545 -3242 -3307 0
3242 3307 -6545 6546 0
3307 6545 -3242 6546 0
3242 6545 -3307 6546 0
3366 3428 6546 -6547 0
6546 -3366 -3428 -6547 0
3366 -6546 -3428 -6547 0
3428 -6546 -3366 -6547 0
6547 -6546 -3366 -3428 0
3366 3428 -6546 6547 0
3428 6546 -3366 6547 0
3366 6546 -3428 6547 0
3473 6539 6547 -6548 0
-6539 6547 -3473 -6548 0
6539 -6547 -3473 -6548 0
3473 -6539 -6547 -6548 0
-6539 -6547 -3473 6548 0
3473 6539 -6547 6548 0
3473 -6539 6547 6548 0
6539 6547 -3473 6548 0
3552 3617 6548 -6549 0
6548 -3552 -3617 -6549 0
3552 -6548 -3617 -6549 0
3617 -6548 -3552 -6549 0
6549 -6548 -3552 -3617 0
3552 3617 -6548 6549 0
3617 6548 -3552 6549 0
3552 6548 -3617 6549 0
3676 3741 6549 -6550 0
6549 -3676 -3741 -6550 0
3676 -6549 -3741 -6550 0
3741 -6549 -3676 -6550 0
6550 -6549 -3676 -3741 0
3676 3741 -6549 6550 0
3741 6549 -3676 6550 0
3676 6549 -3741 6550 0
3783 5450 6550 -6551 0
5450 -6550 -3783 -6551 0
-5450 6550 -3783 -6551 0
3783 -5450 -6550 -6551 0
6551 -5450 -6550 -3783 0
3783 -5450 6550 6551 0
3783 5450 -6550 6551 0
5450 6550 -3783 6551 0
3865 3927 6551 -6552 0
6551 -3865 -3927 -6552 0
3865 -6551 -3927 -6552 0
3927 -6551 -3865 -6552 0
6552 -6551 -3865 -3927 0
3865 3927 -6551 6552 0
3927 6551 -3865 6552 0
3865 6551 -3927 6552 0
4092 3989 6552 -6553 0
6552 -3989 -4092 -6553 0
3989 -6552 -4092 -6553 0
4092 -6552 -3989 -6553 0
6553 -6552 -3989 -4092 0
4092 3989 -6552 6553 0
4092 6552 -3989 6553 0
3989 6552 -4092 6553 0
4142 4192 6553 -6554 0
6553 -4142 -4192 -6554 0
4142 -6553 -4192 -6554 0
4192 -6553 -4142 -6554 0
6554 -6553 -4142 -4192 0
4142 4192 -6553 6554 0
4192 6553 -4142 6554 0
4142 6553 -4192 6554 0
4242 4292 6554 -6555 0
6554 -4242 -4292 -6555 0
4242 -6554 -4292 -6555 0
4292 -6554 -4242 -6555 0
6555 -6554 -4242 -4292 0
4242 4292 -6554 6555 0
4292 6554 -4242 6555 0
4242 6554 -4292 6555 0
2297 2368 5805 -6556 0
5805 -2297 -2368 -6556 0
2297 -5805 -2368 -6556 0
2368 -5805 -2297 -6556 0
6556 -5805 -2297 -2368 0
2297 2368 -5805 6556 0
2368 5805 -2297 6556 0
2297 5805 -2368 6556 0
2430 2492 6556 -6557 0
6556 -2430 -2492 -6557 0
2430 -6556 -2492 -6557 0
2492 -6556 -2430 -6557 0
6557 -6556 -2430 -2492 0
2430 2492 -6556 6557 0
2492 6556 -2430 6557 0
2430 6556 -2492 6557 0
2554 2616 6557 -6558 0
6557 -2554 -2616 -6558 0
2554 -6557 -2616 -6558 0
2616 -6557 -2554 -6558 0
6558 -6557 -2554 -2616 0
2554 2616 -6557 6558 0
2616 6557 -2554 6558 0
2554 6557 -2616 6558 0
2678 2740 6558 -6559 0
6558 -2678 -2740 -6559 0
2678 -6558 -2740 -6559 0
2740 -6558 -2678 -6559 0
6559 -6558 -2678 -2740 0
2678 2740 -6558 6559 0
2740 6558 -2678 6559 0
2678 6558 -2740 6559 0
2802 2864 6559 -6560 0
6559 -2802 -2864 -6560 0
2802 -6559 -2864 -6560 0
2864 -6559 -2802 -6560 0
6560 -6559 -2802 -2864 0
2802 2864 -6559 6560 0
2864 6559 -2802 6560 0
2802 6559 -2864 6560 0
2926 2988 6560 -6561 0
6560 -2926 -2988 -6561 0
2926 -6560 -2988 -6561 0
2988 -6560 -2926 -6561 0
6561 -6560 -2926 -2988 0
2926 2988 -6560 6561 0
2988 6560 -2926 6561 0
2926 6560 -2988 6561 0
3047 3112 6561 -6562 0
6561 -3047 -3112 -6562 0
3047 -6561 -3112 -6562 0
3112 -6561 -3047 -6562 0
6562 -6561 -3047 -3112 0
3047 3112 -6561 6562 0
3112 6561 -3047 6562 0
3047 6561 -3112 6562 0
3171 3236 6562 -6563 0
6562 -3171 -3236 -6563 0
3171 -6562 -3236 -6563 0
3236 -6562 -3171 -6563 0
6563 -6562 -3171 -3236 0
3171 3236 -6562 6563 0
3236 6562 -3171 6563 0
3171 6562 -3236 6563 0
3298 3360 6563 -6564 0
6563 -3298 -3360 -6564 0
3298 -6563 -3360 -6564 0
3360 -6563 -3298 -6564 0
6564 -6563 -3298 -3360 0
3298 3360 -6563 6564 0
3360 6563 -3298 6564 0
3298 6563 -3360 6564 0
3411 6538 6564 -6565 0
6538 -6564 -3411 -6565 0
-6538 6564 -3411 -6565 0
3411 -6538 -6564 -6565 0
6565 -6538 -6564 -3411 0
3411 -6538 6564 6565 0
3411 6538 -6564 6565 0
6538 6564 -3411 6565 0
3484 3546 6565 -6566 0
6565 -3484 -3546 -6566 0
3484 -6565 -3546 -6566 0
3546 -6565 -3484 -6566 0
6566 -6565 -3484 -3546 0
3484 3546 -6565 6566 0
3546 6565 -3484 6566 0
3484 6565 -3546 6566 0
3608 3670 6566 -6567 0
6566 -3608 -3670 -6567 0
3608 -6566 -3670 -6567 0
3670 -6566 -3608 -6567 0
6567 -6566 -3608 -3670 0
3608 3670 -6566 6567 0
3670 6566 -3608 6567 0
3608 6566 -3670 6567 0
3732 3794 6567 -6568 0
6567 -3732 -3794 -6568 0
3732 -6567 -3794 -6568 0
3794 -6567 -3732 -6568 0
6568 -6567 -3732 -3794 0
3732 3794 -6567 6568 0
3794 6567 -3732 6568 0
3732 6567 -3794 6568 0
3856 3918 6568 -6569 0
6568 -3856 -3918 -6569 0
3856 -6568 -3918 -6569 0
3918 -6568 -3856 -6569 0
6569 -6568 -3856 -3918 0
3856 3918 -6568 6569 0
3918 6568 -3856 6569 0
3856 6568 -3918 6569 0
4083 3980 6569 -6570 0
6569 -3980 -4083 -6570 0
3980 -6569 -4083 -6570 0
4083 -6569 -3980 -6570 0
6570 -6569 -3980 -4083 0
4083 3980 -6569 6570 0
4083 6569 -3980 6570 0
3980 6569 -4083 6570 0
4133 4183 6570 -6571 0
6570 -4133 -4183 -6571 0
4133 -6570 -4183 -6571 0
4183 -6570 -4133 -6571 0
6571 -6570 -4133 -4183 0
4133 4183 -6570 6571 0
4183 6570 -4133 6571 0
4133 6570 -4183 6571 0
2173 2241 5806 -6572 0
5806 -2173 -2241 -6572 0
2173 -5806 -2241 -6572 0
2241 -5806 -2173 -6572 0
6572 -5806 -2173 -2241 0
2173 2241 -5806 6572 0
2241 5806 -2173 6572 0
2173 5806 -2241 6572 0
2303 2365 6572 -6573 0
6572 -2303 -2365 -6573 0
2303 -6572 -2365 -6573 0
2365 -6572 -2303 -6573 0
6573 -6572 -2303 -2365 0
2303 2365 -6572 6573 0
2365 6572 -2303 6573 0
2303 6572 -2365 6573 0
2427 2489 6573 -6574 0
6573 -2427 -2489 -6574 0
2427 -6573 -2489 -6574 0
2489 -6573 -2427 -6574 0
6574 -6573 -2427 -2489 0
2427 2489 -6573 6574 0
2489 6573 -2427 6574 0
2427 6573 -2489 6574 0
2551 2613 6574 -6575 0
6574 -2551 -2613 -6575 0
2551 -6574 -2613 -6575 0
2613 -6574 -2551 -6575 0
6575 -6574 -2551 -2613 0
2551 2613 -6574 6575 0
2613 6574 -2551 6575 0
2551 6574 -2613 6575 0
2675 2737 6575 -6576 0
6575 -2675 -2737 -6576 0
2675 -6575 -2737 -6576 0
2737 -6575 -2675 -6576 0
6576 -6575 -2675 -2737 0
2675 2737 -6575 6576 0
2737 6575 -2675 6576 0
2675 6575 -2737 6576 0
2799 2861 6576 -6577 0
6576 -2799 -2861 -6577 0
2799 -6576 -2861 -6577 0
2861 -6576 -2799 -6577 0
6577 -6576 -2799 -2861 0
2799 2861 -6576 6577 0
2861 6576 -2799 6577 0
2799 6576 -2861 6577 0
2923 2985 6577 -6578 0
6577 -2923 -2985 -6578 0
2923 -6577 -2985 -6578 0
2985 -6577 -2923 -6578 0
6578 -6577 -2923 -2985 0
2923 2985 -6577 6578 0
2985 6577 -2923 6578 0
2923 6577 -2985 6578 0
3044 3109 6578 -6579 0
6578 -3044 -3109 -6579 0
3044 -6578 -3109 -6579 0
3109 -6578 -3044 -6579 0
6579 -6578 -3044 -3109 0
3044 3109 -6578 6579 0
3109 6578 -3044 6579 0
3044 6578 -3109 6579 0
3163 5416 6579 -6580 0
5416 -6579 -3163 -6580 0
-5416 6579 -3163 -6580 0
3163 -5416 -6579 -6580 0
6580 -5416 -6579 -3163 0
3163 -5416 6579 6580 0
3163 5416 -6579 6580 0
5416 6579 -3163 6580 0
3233 3295 6580 -6581 0
6580 -3233 -3295 -6581 0
3233 -6580 -3295 -6581 0
3295 -6580 -3233 -6581 0
6581 -6580 -3233 -3295 0
3233 3295 -6580 6581 0
3295 6580 -3233 6581 0
3233 6580 -3295 6581 0
3357 3419 6581 -6582 0
6581 -3357 -3419 -6582 0
3357 -6581 -3419 -6582 0
3419 -6581 -3357 -6582 0
6582 -6581 -3357 -3419 0
3357 3419 -6581 6582 0
3419 6581 -3357 6582 0
3357 6581 -3419 6582 0
3481 3543 6582 -6583 0
6582 -3481 -3543 -6583 0
3481 -6582 -3543 -6583 0
3543 -6582 -3481 -6583 0
6583 -6582 -3481 -3543 0
3481 3543 -6582 6583 0
3543 6582 -3481 6583 0
3481 6582 -3543 6583 0
3605 3667 6583 -6584 0
6583 -3605 -3667 -6584 0
3605 -6583 -3667 -6584 0
3667 -6583 -3605 -6584 0
6584 -6583 -3605 -3667 0
3605 3667 -6583 6584 0
3667 6583 -3605 6584 0
3605 6583 -3667 6584 0
3729 3791 6584 -6585 0
6584 -3729 -3791 -6585 0
3729 -6584 -3791 -6585 0
3791 -6584 -3729 -6585 0
6585 -6584 -3729 -3791 0
3729 3791 -6584 6585 0
3791 6584 -3729 6585 0
3729 6584 -3791 6585 0
3853 3915 6585 -6586 0
6585 -3853 -3915 -6586 0
3853 -6585 -3915 -6586 0
3915 -6585 -3853 -6586 0
6586 -6585 -3853 -3915 0
3853 3915 -6585 6586 0
3915 6585 -3853 6586 0
3853 6585 -3915 6586 0
4080 3977 6586 -6587 0
6586 -3977 -4080 -6587 0
3977 -6586 -4080 -6587 0
4080 -6586 -3977 -6587 0
6587 -6586 -3977 -4080 0
4080 3977 -6586 6587 0
4080 6586 -3977 6587 0
3977 6586 -4080 6587 0
6587 -4127 -6588 0
4127 -6587 -6588 0
6588 -6587 -4127 0
4127 6587 6588 0
4066 4104 4154 -6589 0
4066 -4104 -4154 -6589 0
4104 -4066 -4154 -6589 0
4154 -4066 -4104 -6589 0
-4066 -4104 -4154 6589 0
4104 4154 -4066 6589 0
4066 4154 -4104 6589 0
4066 4104 -4154 6589 0
4175 6588 6589 -6590 0
-6588 6589 -4175 -6590 0
6588 -6589 -4175 -6590 0
4175 -6588 -6589 -6590 0
-6588 -6589 -4175 6590 0
4175 6588 -6589 6590 0
4175 -6588 6589 6590 0
6588 6589 -4175 6590 0
4225 6571 6590 -6591 0
-6571 6590 -4225 -6591 0
6571 -6590 -4225 -6591 0
4225 -6571 -6590 -6591 0
-6571 -6590 -4225 6591 0
4225 6571 -6590 6591 0
4225 -6571 6590 6591 0
6571 6590 -4225 6591 0
5418 -3289 -6592 0
3289 -5418 -6592 0
6592 -5418 -3289 0
3289 5418 6592 0
2669 2746 5996 -6593 0
5996 -2669 -2746 -6593 0
2669 -5996 -2746 -6593 0
2746 -5996 -2669 -6593 0
6593 -5996 -2669 -2746 0
2669 2746 -5996 6593 0
2746 5996 -2669 6593 0
2669 5996 -2746 6593 0
2808 2870 6593 -6594 0
6593 -2808 -2870 -6594 0
2808 -6593 -2870 -6594 0
2870 -6593 -2808 -6594 0
6594 -6593 -2808 -2870 0
2808 2870 -6593 6594 0
2870 6593 -2808 6594 0
2808 6593 -2870 6594 0
2932 2994 6594 -6595 0
6594 -2932 -2994 -6595 0
2932 -6594 -2994 -6595 0
2994 -6594 -2932 -6595 0
6595 -6594 -2932 -2994 0
2932 2994 -6594 6595 0
2994 6594 -2932 6595 0
2932 6594 -2994 6595 0
3053 3118 6595 -6596 0
6595 -3053 -3118 -6596 0
3053 -6595 -3118 -6596 0
3118 -6595 -3053 -6596 0
6596 -6595 -3053 -3118 0
3053 3118 -6595 6596 0
3118 6595 -3053 6596 0
3053 6595 -3118 6596 0
3177 3239 6596 -6597 0
6596 -3177 -3239 -6597 0
3177 -6596 -3239 -6597 0
3239 -6596 -3177 -6597 0
6597 -6596 -3177 -3239 0
3177 3239 -6596 6597 0
3239 6596 -3177 6597 0
3177 6596 -3239 6597 0
3304 6592 6597 -6598 0
-6592 6597 -3304 -6598 0
3304 -6592 -6597 -6598 0
6592 -6597 -3304 -6598 0
-6592 -6597 -3304 6598 0
3304 6592 -6597 6598 0
6592 6597 -3304 6598 0
3304 -6592 6597 6598 0
3349 3425 6598 -6599 0
6598 -3349 -3425 -6599 0
3349 -6598 -3425 -6599 0
3425 -6598 -3349 -6599 0
6599 -6598 -3349 -3425 0
3349 3425 -6598 6599 0
3425 6598 -3349 6599 0
3349 6598 -3425 6599 0
3490 3549 6599 -6600 0
6599 -3490 -3549 -6600 0
3490 -6599 -3549 -6600 0
3549 -6599 -3490 -6600 0
6600 -6599 -3490 -3549 0
3490 3549 -6599 6600 0
3549 6599 -3490 6600 0
3490 6599 -3549 6600 0
3614 5448 6600 -6601 0
5448 -6600 -3614 -6601 0
-5448 6600 -3614 -6601 0
3614 -5448 -6600 -6601 0
6601 -5448 -6600 -3614 0
3614 -5448 6600 6601 0
3614 5448 -6600 6601 0
5448 6600 -3614 6601 0
3659 3738 6601 -6602 0
6601 -3659 -3738 -6602 0
3659 -6601 -3738 -6602 0
3738 -6601 -3659 -6602 0
6602 -6601 -3659 -3738 0
3659 3738 -6601 6602 0
3738 6601 -3659 6602 0
3659 6601 -3738 6602 0
3800 3862 6602 -6603 0
6602 -3800 -3862 -6603 0
3800 -6602 -3862 -6603 0
3862 -6602 -3800 -6603 0
6603 -6602 -3800 -3862 0
3800 3862 -6602 6603 0
3862 6602 -3800 6603 0
3800 6602 -3862 6603 0
3924 3986 6603 -6604 0
6603 -3924 -3986 -6604 0
3924 -6603 -3986 -6604 0
3986 -6603 -3924 -6604 0
6604 -6603 -3924 -3986 0
3924 3986 -6603 6604 0
3986 6603 -3924 6604 0
3924 6603 -3986 6604 0
4089 4139 6604 -6605 0
6604 -4089 -4139 -6605 0
4089 -6604 -4139 -6605 0
4139 -6604 -4089 -6605 0
6605 -6604 -4089 -4139 0
4089 4139 -6604 6605 0
4139 6604 -4089 6605 0
4089 6604 -4139 6605 0
4189 4239 6605 -6606 0
6605 -4189 -4239 -6606 0
4189 -6605 -4239 -6606 0
4239 -6605 -4189 -6606 0
6606 -6605 -4189 -4239 0
4189 4239 -6605 6606 0
4239 6605 -4189 6606 0
4189 6605 -4239 6606 0
4275 6591 6606 -6607 0
-6591 6606 -4275 -6607 0
6591 -6606 -4275 -6607 0
4275 -6591 -6606 -6607 0
-6591 -6606 -4275 6607 0
4275 6591 -6606 6607 0
4275 -6591 6606 6607 0
6591 6606 -4275 6607 0
4325 6555 6607 -6608 0
-6555 6607 -4325 -6608 0
6555 -6607 -4325 -6608 0
4325 -6555 -6607 -6608 0
-6555 -6607 -4325 6608 0
4325 6555 -6607 6608 0
4325 -6555 6607 6608 0
6555 6607 -4325 6608 0
4407 4457 6608 -6609 0
6608 -4407 -4457 -6609 0
4407 -6608 -4457 -6609 0
4457 -6608 -4407 -6609 0
6609 -6608 -4407 -4457 0
4407 4457 -6608 6609 0
4457 6608 -4407 6609 0
4407 6608 -4457 6609 0
4507 4557 6609 -6610 0
6609 -4507 -4557 -6610 0
4507 -6609 -4557 -6610 0
4557 -6609 -4507 -6610 0
6610 -6609 -4507 -4557 0
4507 4557 -6609 6610 0
4557 6609 -4507 6610 0
4507 6609 -4557 6610 0
4607 4657 6610 -6611 0
6610 -4607 -4657 -6611 0
4607 -6610 -4657 -6611 0
4657 -6610 -4607 -6611 0
6611 -6610 -4607 -4657 0
4607 4657 -6610 6611 0
4657 6610 -4607 6611 0
4607 6610 -4657 6611 0
4707 4757 6611 -6612 0
6611 -4707 -4757 -6612 0
4707 -6611 -4757 -6612 0
4757 -6611 -4707 -6612 0
6612 -6611 -4707 -4757 0
4707 4757 -6611 6612 0
4757 6611 -4707 6612 0
4707 6611 -4757 6612 0
4807 4857 6612 -6613 0
6612 -4807 -4857 -6613 0
4807 -6612 -4857 -6613 0
4857 -6612 -4807 -6613 0
6613 -6612 -4807 -4857 0
4807 4857 -6612 6613 0
4857 6612 -4807 6613 0
4807 6612 -4857 6613 0
4907 4957 6613 -6614 0
6613 -4907 -4957 -6614 0
4907 -6613 -4957 -6614 0
4957 -6613 -4907 -6614 0
6614 -6613 -4907 -4957 0
4907 4957 -6613 6614 0
4957 6613 -4907 6614 0
4907 6613 -4957 6614 0
5007 5057 6614 -6615 0
6614 -5007 -5057 -6615 0
5007 -6614 -5057 -6615 0
5057 -6614 -5007 -6615 0
6615 -6614 -5007 -5057 0
5007 5057 -6614 6615 0
5057 6614 -5007 6615 0
5007 6614 -5057 6615 0
5107 5157 6615 -6616 0
6615 -5107 -5157 -6616 0
5107 -6615 -5157 -6616 0
5157 -6615 -5107 -6616 0
6616 -6615 -5107 -5157 0
5107 5157 -6615 6616 0
5157 6615 -5107 6616 0
5107 6615 -5157 6616 0
5207 5257 6616 -6617 0
6616 -5207 -5257 -6617 0
5207 -6616 -5257 -6617 0
5257 -6616 -5207 -6617 0
6617 -6616 -5207 -5257 0
5207 5257 -6616 6617 0
5257 6616 -5207 6617 0
5207 6616 -5257 6617 0
6617 6618 0
6463 6618 0
-6463 -6617 -6618 0
6144 -3596 -6619 0
3596 -6144 -6619 0
6619 -6144 -3596 0
3596 6144 6619 0
3678 3743 6619 -6620 0
6619 -3678 -3743 -6620 0
3678 -6619 -3743 -6620 0
3743 -6619 -3678 -6620 0
6620 -6619 -3678 -3743 0
3678 3743 -6619 6620 0
3743 6619 -3678 6620 0
3678 6619 -3743 6620 0
3802 3867 6620 -6621 0
6620 -3802 -3867 -6621 0
3802 -6620 -3867 -6621 0
3867 -6620 -3802 -6621 0
6621 -6620 -3802 -3867 0
3802 3867 -6620 6621 0
3867 6620 -3802 6621 0
3802 6620 -3867 6621 0
3929 3991 6621 -6622 0
6621 -3929 -3991 -6622 0
3929 -6621 -3991 -6622 0
3991 -6621 -3929 -6622 0
6622 -6621 -3929 -3991 0
3929 3991 -6621 6622 0
3991 6621 -3929 6622 0
3929 6621 -3991 6622 0
4094 4144 6622 -6623 0
6622 -4094 -4144 -6623 0
4094 -6622 -4144 -6623 0
4144 -6622 -4094 -6623 0
6623 -6622 -4094 -4144 0
4094 4144 -6622 6623 0
4144 6622 -4094 6623 0
4094 6622 -4144 6623 0
4194 4244 6623 -6624 0
6623 -4194 -4244 -6624 0
4194 -6623 -4244 -6624 0
4244 -6623 -4194 -6624 0
6624 -6623 -4194 -4244 0
4194 4244 -6623 6624 0
4244 6623 -4194 6624 0
4194 6623 -4244 6624 0
4294 4344 6624 -6625 0
6624 -4294 -4344 -6625 0
4294 -6624 -4344 -6625 0
4344 -6624 -4294 -6625 0
6625 -6624 -4294 -4344 0
4294 4344 -6624 6625 0
4344 6624 -4294 6625 0
4294 6624 -4344 6625 0
4394 4444 6625 -6626 0
6625 -4394 -4444 -6626 0
4394 -6625 -4444 -6626 0
4444 -6625 -4394 -6626 0
6626 -6625 -4394 -4444 0
4394 4444 -6625 6626 0
4444 6625 -4394 6626 0
4394 6625 -4444 6626 0
4476 6469 6626 -6627 0
6469 -6626 -4476 -6627 0
-6469 6626 -4476 -6627 0
4476 -6469 -6626 -6627 0
6627 -6469 -6626 -4476 0
4476 -6469 6626 6627 0
4476 6469 -6626 6627 0
6469 6626 -4476 6627 0
4547 4597 6627 -6628 0
6627 -4547 -4597 -6628 0
4547 -6627 -4597 -6628 0
4597 -6627 -4547 -6628 0
-6627 -4547 -4597 6628 0
4547 4597 -6627 6628 0
4597 6627 -4547 6628 0
4547 6627 -4597 6628 0
4647 4694 6628 -6629 0
6628 -4647 -4694 -6629 0
4647 -6628 -4694 -6629 0
4694 -6628 -4647 -6629 0
6629 -6628 -4647 -4694 0
4647 4694 -6628 6629 0
4694 6628 -4647 6629 0
4647 6628 -4694 6629 0
4744 4794 6629 -6630 0
6629 -4744 -4794 -6630 0
4744 -6629 -4794 -6630 0
4794 -6629 -4744 -6630 0
6630 -6629 -4744 -4794 0
4744 4794 -6629 6630 0
4794 6629 -4744 6630 0
4744 6629 -4794 6630 0
4844 4894 6630 -6631 0
6630 -4844 -4894 -6631 0
4844 -6630 -4894 -6631 0
4894 -6630 -4844 -6631 0
6631 -6630 -4844 -4894 0
4844 4894 -6630 6631 0
4894 6630 -4844 6631 0
4844 6630 -4894 6631 0
4944 4994 6631 -6632 0
6631 -4944 -4994 -6632 0
4944 -6631 -4994 -6632 0
4994 -6631 -4944 -6632 0
6632 -6631 -4944 -4994 0
4944 4994 -6631 6632 0
4994 6631 -4944 6632 0
4944 6631 -4994 6632 0
4774 4838 6420 -6633 0
6420 -4774 -4838 -6633 0
4774 -6420 -4838 -6633 0
4838 -6420 -4774 -6633 0
6633 -6420 -4774 -4838 0
4774 4838 -6420 6633 0
4838 6420 -4774 6633 0
4774 6420 -4838 6633 0
4885 4938 6633 -6634 0
6633 -4885 -4938 -6634 0
4885 -6633 -4938 -6634 0
4938 -6633 -4885 -6634 0
6634 -6633 -4885 -4938 0
4885 4938 -6633 6634 0
4938 6633 -4885 6634 0
4885 6633 -4938 6634 0
4071 4118 4168 -6635 0
4071 -4118 -4168 -6635 0
4118 -4071 -4168 -6635 0
4168 -4071 -4118 -6635 0
-4071 -4118 -4168 6635 0
4118 4168 -4071 6635 0
4071 4168 -4118 6635 0
4071 4118 -4168 6635 0
4218 4268 6635 -6636 0
6635 -4218 -4268 -6636 0
4218 -6635 -4268 -6636 0
4268 -6635 -4218 -6636 0
6636 -6635 -4218 -4268 0
4218 4268 -6635 6636 0
4268 6635 -4218 6636 0
4218 6635 -4268 6636 0
4318 4368 6636 -6637 0
6636 -4318 -4368 -6637 0
4318 -6636 -4368 -6637 0
4368 -6636 -4318 -6637 0
6637 -6636 -4318 -4368 0
4318 4368 -6636 6637 0
4368 6636 -4318 6637 0
4318 6636 -4368 6637 0
4418 4468 6637 -6638 0
6637 -4418 -4468 -6638 0
4418 -6637 -4468 -6638 0
4468 -6637 -4418 -6638 0
6638 -6637 -4418 -4468 0
4418 4468 -6637 6638 0
4468 6637 -4418 6638 0
4418 6637 -4468 6638 0
4518 4568 6638 -6639 0
6638 -4518 -4568 -6639 0
4518 -6638 -4568 -6639 0
4568 -6638 -4518 -6639 0
6639 -6638 -4518 -4568 0
4518 4568 -6638 6639 0
4568 6638 -4518 6639 0
4518 6638 -4568 6639 0
4618 4668 6639 -6640 0
6639 -4618 -4668 -6640 0
4618 -6639 -4668 -6640 0
4668 -6639 -4618 -6640 0
6640 -6639 -4618 -4668 0
4618 4668 -6639 6640 0
4668 6639 -4618 6640 0
4618 6639 -4668 6640 0
4718 4768 6640 -6641 0
6640 -4718 -4768 -6641 0
4718 -6640 -4768 -6641 0
4768 -6640 -4718 -6641 0
6641 -6640 -4718 -4768 0
4718 4768 -6640 6641 0
4768 6640 -4718 6641 0
4718 6640 -4768 6641 0
4818 4868 6641 -6642 0
6641 -4818 -4868 -6642 0
4818 -6641 -4868 -6642 0
4868 -6641 -4818 -6642 0
6642 -6641 -4818 -4868 0
4818 4868 -6641 6642 0
4868 6641 -4818 6642 0
4818 6641 -4868 6642 0
4918 4968 6642 -6643 0
6642 -4918 -4968 -6643 0
4918 -6642 -4968 -6643 0
4968 -6642 -4918 -6643 0
6643 -6642 -4918 -4968 0
4918 4968 -6642 6643 0
4968 6642 -4918 6643 0
4918 6642 -4968 6643 0
4976 6634 6643 -6644 0
-6634 6643 -4976 -6644 0
6634 -6643 -4976 -6644 0
4976 -6634 -6643 -6644 0
-6634 -6643 -4976 6644 0
4976 6634 -6643 6644 0
4976 -6634 6643 6644 0
6634 6643 -4976 6644 0
5026 6632 6644 -6645 0
-6632 6644 -5026 -6645 0
6632 -6644 -5026 -6645 0
5026 -6632 -6644 -6645 0
-6632 -6644 -5026 6645 0
5026 6632 -6644 6645 0
5026 -6632 6644 6645 0
6632 6644 -5026 6645 0
5121 5171 6645 -6646 0
6645 -5121 -5171 -6646 0
5121 -6645 -5171 -6646 0
5171 -6645 -5121 -6646 0
6646 -6645 -5121 -5171 0
5121 5171 -6645 6646 0
5171 6645 -5121 6646 0
5121 6645 -5171 6646 0
5221 5271 6646 -6647 0
6646 -5221 -5271 -6647 0
5221 -6646 -5271 -6647 0
5271 -6646 -5221 -6647 0
6647 -6646 -5221 -5271 0
5221 5271 -6646 6647 0
5271 6646 -5221 6647 0
5221 6646 -5271 6647 0
6526 6648 0
-6647 6648 0
-6526 6647 -6648 0
5549 -2049 -6649 0
2049 -5549 -6649 0
6649 -5549 -2049 0
2049 5549 6649 0
2114 2176 6649 -6650 0
6649 -2114 -2176 -6650 0
2114 -6649 -2176 -6650 0
2176 -6649 -2114 -6650 0
6650 -6649 -2114 -2176 0
2114 2176 -6649 6650 0
2176 6649 -2114 6650 0
2114 6649 -2176 6650 0
2238 2300 6650 -6651 0
6650 -2238 -2300 -6651 0
2238 -6650 -2300 -6651 0
2300 -6650 -2238 -6651 0
6651 -6650 -2238 -2300 0
2238 2300 -6650 6651 0
2300 6650 -2238 6651 0
2238 6650 -2300 6651 0
2362 2424 6651 -6652 0
6651 -2362 -2424 -6652 0
2362 -6651 -2424 -6652 0
2424 -6651 -2362 -6652 0
6652 -6651 -2362 -2424 0
2362 2424 -6651 6652 0
2424 6651 -2362 6652 0
2362 6651 -2424 6652 0
2486 2548 6652 -6653 0
6652 -2486 -2548 -6653 0
2486 -6652 -2548 -6653 0
2548 -6652 -2486 -6653 0
6653 -6652 -2486 -2548 0
2486 2548 -6652 6653 0
2548 6652 -2486 6653 0
2486 6652 -2548 6653 0
2610 2672 6653 -6654 0
6653 -2610 -2672 -6654 0
2610 -6653 -2672 -6654 0
2672 -6653 -2610 -6654 0
-6653 -2610 -2672 6654 0
2610 2672 -6653 6654 0
2672 6653 -2610 6654 0
2610 6653 -2672 6654 0
2734 2796 6654 -6655 0
6654 -2734 -2796 -6655 0
2734 -6654 -2796 -6655 0
2796 -6654 -2734 -6655 0
6655 -6654 -2734 -2796 0
2734 2796 -6654 6655 0
2796 6654 -2734 6655 0
2734 6654 -2796 6655 0
2858 2920 6655 -6656 0
6655 -2858 -2920 -6656 0
2858 -6655 -2920 -6656 0
2920 -6655 -2858 -6656 0
6656 -6655 -2858 -2920 0
2858 2920 -6655 6656 0
2920 6655 -2858 6656 0
2858 6655 -2920 6656 0
2982 5414 6656 -6657 0
5414 -6656 -2982 -6657 0
-5414 6656 -2982 -6657 0
2982 -5414 -6656 -6657 0
6657 -5414 -6656 -2982 0
2982 -5414 6656 6657 0
2982 5414 -6656 6657 0
5414 6656 -2982 6657 0
3039 3106 6657 -6658 0
6657 -3039 -3106 -6658 0
3039 -6657 -3106 -6658 0
3106 -6657 -3039 -6658 0
6658 -6657 -3039 -3106 0
3039 3106 -6657 6658 0
3106 6657 -3039 6658 0
3039 6657 -3106 6658 0
3168 3230 6658 -6659 0
6658 -3168 -3230 -6659 0
3168 -6658 -3230 -6659 0
3230 -6658 -3168 -6659 0
6659 -6658 -3168 -3230 0
3168 3230 -6658 6659 0
3230 6658 -3168 6659 0
3168 6658 -3230 6659 0
3292 3354 6659 -6660 0
6659 -3292 -3354 -6660 0
3292 -6659 -3354 -6660 0
3354 -6659 -3292 -6660 0
6660 -6659 -3292 -3354 0
3292 3354 -6659 6660 0
3354 6659 -3292 6660 0
3292 6659 -3354 6660 0
3416 3478 6660 -6661 0
6660 -3416 -3478 -6661 0
3416 -6660 -3478 -6661 0
3478 -6660 -3416 -6661 0
6661 -6660 -3416 -3478 0
3416 3478 -6660 6661 0
3478 6660 -3416 6661 0
3416 6660 -3478 6661 0
3540 3602 6661 -6662 0
6661 -3540 -3602 -6662 0
3540 -6661 -3602 -6662 0
3602 -6661 -3540 -6662 0
6662 -6661 -3540 -3602 0
3540 3602 -6661 6662 0
3602 6661 -3540 6662 0
3540 6661 -3602 6662 0
3664 3726 6662 -6663 0
6662 -3664 -3726 -6663 0
3664 -6662 -3726 -6663 0
3726 -6662 -3664 -6663 0
6663 -6662 -3664 -3726 0
3664 3726 -6662 6663 0
3726 6662 -3664 6663 0
3664 6662 -3726 6663 0
3788 3850 6663 -6664 0
6663 -3788 -3850 -6664 0
3788 -6663 -3850 -6664 0
3850 -6663 -3788 -6664 0
6664 -6663 -3788 -3850 0
3788 3850 -6663 6664 0
3850 6663 -3788 6664 0
3788 6663 -3850 6664 0
3912 3974 6664 -6665 0
6664 -3912 -3974 -6665 0
3912 -6664 -3974 -6665 0
3974 -6664 -3912 -6665 0
6665 -6664 -3912 -3974 0
3912 3974 -6664 6665 0
3974 6664 -3912 6665 0
3912 6664 -3974 6665 0
4075 4065 6665 -6666 0
4065 -6665 -4075 -6666 0
-4065 6665 -4075 -6666 0
4075 -4065 -6665 -6666 0
-4065 -6665 -4075 6666 0
4075 -4065 6665 6666 0
4075 4065 -6665 6666 0
4065 6665 -4075 6666 0
4125 6587 6666 -6667 0
-6587 6666 -4125 -6667 0
6587 -6666 -4125 -6667 0
4125 -6587 -6666 -6667 0
-6587 -6666 -4125 6667 0
4125 6587 -6666 6667 0
4125 -6587 6666 6667 0
6587 6666 -4125 6667 0
4204 4254 6667 -6668 0
6667 -4204 -4254 -6668 0
4204 -6667 -4254 -6668 0
4254 -6667 -4204 -6668 0
6668 -6667 -4204 -4254 0
4204 4254 -6667 6668 0
4254 6667 -4204 6668 0
4204 6667 -4254 6668 0
4304 4354 6668 -6669 0
6668 -4304 -4354 -6669 0
4304 -6668 -4354 -6669 0
4354 -6668 -4304 -6669 0
6669 -6668 -4304 -4354 0
4304 4354 -6668 6669 0
4354 6668 -4304 6669 0
4304 6668 -4354 6669 0
4404 4454 6669 -6670 0
6669 -4404 -4454 -6670 0
4404 -6669 -4454 -6670 0
4454 -6669 -4404 -6670 0
6670 -6669 -4404 -4454 0
4404 4454 -6669 6670 0
4454 6669 -4404 6670 0
4404 6669 -4454 6670 0
4504 4554 6670 -6671 0
6670 -4504 -4554 -6671 0
4504 -6670 -4554 -6671 0
4554 -6670 -4504 -6671 0
6671 -6670 -4504 -4554 0
4504 4554 -6670 6671 0
4554 6670 -4504 6671 0
4504 6670 -4554 6671 0
4604 4654 6671 -6672 0
6671 -4604 -4654 -6672 0
4604 -6671 -4654 -6672 0
4654 -6671 -4604 -6672 0
6672 -6671 -4604 -4654 0
4604 4654 -6671 6672 0
4654 6671 -4604 6672 0
4604 6671 -4654 6672 0
4704 4754 6672 -6673 0
6672 -4704 -4754 -6673 0
4704 -6672 -4754 -6673 0
4754 -6672 -4704 -6673 0
6673 -6672 -4704 -4754 0
4704 4754 -6672 6673 0
4754 6672 -4704 6673 0
4704 6672 -4754 6673 0
4804 4854 6673 -6674 0
6673 -4804 -4854 -6674 0
4804 -6673 -4854 -6674 0
4854 -6673 -4804 -6674 0
6674 -6673 -4804 -4854 0
4804 4854 -6673 6674 0
4854 6673 -4804 6674 0
4804 6673 -4854 6674 0
4904 4954 6674 -6675 0
6674 -4904 -4954 -6675 0
4904 -6674 -4954 -6675 0
4954 -6674 -4904 -6675 0
6675 -6674 -4904 -4954 0
4904 4954 -6674 6675 0
4954 6674 -4904 6675 0
4904 6674 -4954 6675 0
5004 5054 6675 -6676 0
6675 -5004 -5054 -6676 0
5004 -6675 -5054 -6676 0
5054 -6675 -5004 -6676 0
6676 -6675 -5004 -5054 0
5004 5054 -6675 6676 0
5054 6675 -5004 6676 0
5004 6675 -5054 6676 0
5104 5154 6676 -6677 0
6676 -5104 -5154 -6677 0
5104 -6676 -5154 -6677 0
5154 -6676 -5104 -6677 0
6677 -6676 -5104 -5154 0
5104 5154 -6676 6677 0
5154 6676 -5104 6677 0
5104 6676 -5154 6677 0
5204 5254 6677 -6678 0
6677 -5204 -5254 -6678 0
5204 -6677 -5254 -6678 0
5254 -6677 -5204 -6678 0
6678 -6677 -5204 -5254 0
5204 5254 -6677 6678 0
5254 6677 -5204 6678 0
5204 6677 -5254 6678 0
6678 6679 0
-6527 -6618 -6648 6679 0
6648 -6678 -6679 0
6618 -6678 -6679 0
6527 -6678 -6679 0
5241 6408 6679 -6680 0
-6408 6679 -5241 -6680 0
6408 -6679 -5241 -6680 0
5241 -6408 -6679 -6680 0
-6408 -6679 -5241 6680 0
5241 6408 -6679 6680 0
5241 -6408 6679 6680 0
6408 6679 -5241 6680 0
5124 5194 6498 -6681 0
6498 -5124 -5194 -6681 0
5124 -6498 -5194 -6681 0
5194 -6498 -5124 -6681 0
6681 -6498 -5124 -5194 0
5124 5194 -6498 6681 0
5194 6498 -5124 6681 0
5124 6498 -5194 6681 0
2917 3003 6191 -6682 0
6191 -2917 -3003 -6682 0
2917 -6191 -3003 -6682 0
3003 -6191 -2917 -6682 0
6682 -6191 -2917 -3003 0
2917 3003 -6191 6682 0
3003 6191 -2917 6682 0
2917 6191 -3003 6682 0
3062 3127 6682 -6683 0
6682 -3062 -3127 -6683 0
3062 -6682 -3127 -6683 0
3127 -6682 -3062 -6683 0
6683 -6682 -3062 -3127 0
3062 3127 -6682 6683 0
3127 6682 -3062 6683 0
3062 6682 -3127 6683 0
3186 3248 6683 -6684 0
6683 -3186 -3248 -6684 0
3186 -6683 -3248 -6684 0
3248 -6683 -3186 -6684 0
6684 -6683 -3186 -3248 0
3186 3248 -6683 6684 0
3248 6683 -3186 6684 0
3186 6683 -3248 6684 0
3313 3372 6684 -6685 0
6684 -3313 -3372 -6685 0
3313 -6684 -3372 -6685 0
3372 -6684 -3313 -6685 0
6685 -6684 -3313 -3372 0
3313 3372 -6684 6685 0
3372 6684 -3313 6685 0
3313 6684 -3372 6685 0
3434 3496 6685 -6686 0
6685 -3434 -3496 -6686 0
3434 -6685 -3496 -6686 0
3496 -6685 -3434 -6686 0
6686 -6685 -3434 -3496 0
3434 3496 -6685 6686 0
3496 6685 -3434 6686 0
3434 6685 -3496 6686 0
3558 3620 6686 -6687 0
6686 -3558 -3620 -6687 0
3558 -6686 -3620 -6687 0
3620 -6686 -3558 -6687 0
6687 -6686 -3558 -3620 0
3558 3620 -6686 6687 0
3620 6686 -3558 6687 0
3558 6686 -3620 6687 0
3682 3747 6687 -6688 0
6687 -3682 -3747 -6688 0
3682 -6687 -3747 -6688 0
3747 -6687 -3682 -6688 0
6688 -6687 -3682 -3747 0
3682 3747 -6687 6688 0
3747 6687 -3682 6688 0
3682 6687 -3747 6688 0
3806 5451 6688 -6689 0
-5451 6688 -3806 -6689 0
3806 -5451 -6688 -6689 0
5451 -6688 -3806 -6689 0
-5451 -6688 -3806 6689 0
3806 5451 -6688 6689 0
5451 6688 -3806 6689 0
3806 -5451 6688 6689 0
3845 3933 6689 -6690 0
6689 -3845 -3933 -6690 0
3845 -6689 -3933 -6690 0
3933 -6689 -3845 -6690 0
6690 -6689 -3845 -3933 0
3845 3933 -6689 6690 0
3933 6689 -3845 6690 0
3845 6689 -3933 6690 0
4098 3995 6690 -6691 0
6690 -3995 -4098 -6691 0
3995 -6690 -4098 -6691 0
4098 -6690 -3995 -6691 0
6691 -6690 -3995 -4098 0
4098 3995 -6690 6691 0
4098 6690 -3995 6691 0
3995 6690 -4098 6691 0
4148 4198 6691 -6692 0
6691 -4148 -4198 -6692 0
4148 -6691 -4198 -6692 0
4198 -6691 -4148 -6692 0
6692 -6691 -4148 -4198 0
4148 4198 -6691 6692 0
4198 6691 -4148 6692 0
4148 6691 -4198 6692 0
4248 4298 6692 -6693 0
6692 -4248 -4298 -6693 0
4248 -6692 -4298 -6693 0
4298 -6692 -4248 -6693 0
6693 -6692 -4248 -4298 0
4248 4298 -6692 6693 0
4298 6692 -4248 6693 0
4248 6692 -4298 6693 0
4348 4398 6693 -6694 0
6693 -4348 -4398 -6694 0
4348 -6693 -4398 -6694 0
4398 -6693 -4348 -6694 0
6694 -6693 -4348 -4398 0
4348 4398 -6693 6694 0
4398 6693 -4348 6694 0
4348 6693 -4398 6694 0
4448 4498 6694 -6695 0
6694 -4448 -4498 -6695 0
4448 -6694 -4498 -6695 0
4498 -6694 -4448 -6695 0
6695 -6694 -4448 -4498 0
4448 4498 -6694 6695 0
4498 6694 -4448 6695 0
4448 6694 -4498 6695 0
6606 -4277 -6696 0
4277 -6606 -6696 0
6696 -6606 -4277 0
4277 6606 6696 0
4342 4389 6696 -6697 0
6696 -4342 -4389 -6697 0
4342 -6696 -4389 -6697 0
4389 -6696 -4342 -6697 0
6697 -6696 -4342 -4389 0
4342 4389 -6696 6697 0
4389 6696 -4342 6697 0
4342 6696 -4389 6697 0
2545 2619 6029 -6698 0
6029 -2545 -2619 -6698 0
2545 -6029 -2619 -6698 0
2619 -6029 -2545 -6698 0
6698 -6029 -2545 -2619 0
2545 2619 -6029 6698 0
2619 6029 -2545 6698 0
2545 6029 -2619 6698 0
2681 2743 6698 -6699 0
6698 -2681 -2743 -6699 0
2681 -6698 -2743 -6699 0
2743 -6698 -2681 -6699 0
6699 -6698 -2681 -2743 0
2681 2743 -6698 6699 0
2743 6698 -2681 6699 0
2681 6698 -2743 6699 0
2805 2867 6699 -6700 0
6699 -2805 -2867 -6700 0
2805 -6699 -2867 -6700 0
2867 -6699 -2805 -6700 0
6700 -6699 -2805 -2867 0
2805 2867 -6699 6700 0
2867 6699 -2805 6700 0
2805 6699 -2867 6700 0
2929 2991 6700 -6701 0
6700 -2929 -2991 -6701 0
2929 -6700 -2991 -6701 0
2991 -6700 -2929 -6701 0
6701 -6700 -2929 -2991 0
2929 2991 -6700 6701 0
2991 6700 -2929 6701 0
2929 6700 -2991 6701 0
3050 3115 6701 -6702 0
6701 -3050 -3115 -6702 0
3050 -6701 -3115 -6702 0
3115 -6701 -3050 -6702 0
6702 -6701 -3050 -3115 0
3050 3115 -6701 6702 0
3115 6701 -3050 6702 0
3050 6701 -3115 6702 0
3174 5417 6702 -6703 0
-5417 6702 -3174 -6703 0
3174 -5417 -6702 -6703 0
5417 -6702 -3174 -6703 0
-5417 -6702 -3174 6703 0
3174 5417 -6702 6703 0
5417 6702 -3174 6703 0
3174 -5417 6702 6703 0
3225 3301 6703 -6704 0
6703 -3225 -3301 -6704 0
3225 -6703 -3301 -6704 0
3301 -6703 -3225 -6704 0
6704 -6703 -3225 -3301 0
3225 3301 -6703 6704 0
3301 6703 -3225 6704 0
3225 6703 -3301 6704 0
3363 3422 6704 -6705 0
6704 -3363 -3422 -6705 0
3363 -6704 -3422 -6705 0
3422 -6704 -3363 -6705 0
6705 -6704 -3363 -3422 0
3363 3422 -6704 6705 0
3422 6704 -3363 6705 0
3363 6704 -3422 6705 0
2091 -2153 -6706 0
2153 -2091 -6706 0
6706 -2091 -2153 0
6706 2091 2153 0
2215 2280 6706 -6707 0
6706 -2215 -2280 -6707 0
2215 -6706 -2280 -6707 0
2280 -6706 -2215 -6707 0
6707 -6706 -2215 -2280 0
2215 2280 -6706 6707 0
2280 6706 -2215 6707 0
2215 6706 -2280 6707 0
2339 2401 6707 -6708 0
6707 -2339 -2401 -6708 0
2339 -6707 -2401 -6708 0
2401 -6707 -2339 -6708 0
6708 -6707 -2339 -2401 0
2339 2401 -6707 6708 0
2401 6707 -2339 6708 0
2339 6707 -2401 6708 0
2466 2525 6708 -6709 0
6708 -2466 -2525 -6709 0
2466 -6708 -2525 -6709 0
2525 -6708 -2466 -6709 0
6709 -6708 -2466 -2525 0
2466 2525 -6708 6709 0
2525 6708 -2466 6709 0
2466 6708 -2525 6709 0
2587 2652 6709 -6710 0
6709 -2587 -2652 -6710 0
2587 -6709 -2652 -6710 0
2652 -6709 -2587 -6710 0
6710 -6709 -2587 -2652 0
2587 2652 -6709 6710 0
2652 6709 -2587 6710 0
2587 6709 -2652 6710 0
2711 2773 6710 -6711 0
6710 -2711 -2773 -6711 0
2711 -6710 -2773 -6711 0
2773 -6710 -2711 -6711 0
6711 -6710 -2711 -2773 0
2711 2773 -6710 6711 0
2773 6710 -2711 6711 0
2711 6710 -2773 6711 0
2838 2897 6711 -6712 0
6711 -2838 -2897 -6712 0
2838 -6711 -2897 -6712 0
2897 -6711 -2838 -6712 0
6712 -6711 -2838 -2897 0
2838 2897 -6711 6712 0
2897 6711 -2838 6712 0
2838 6711 -2897 6712 0
2959 3021 6712 -6713 0
6712 -2959 -3021 -6713 0
2959 -6712 -3021 -6713 0
3021 -6712 -2959 -6713 0
6713 -6712 -2959 -3021 0
2959 3021 -6712 6713 0
3021 6712 -2959 6713 0
2959 6712 -3021 6713 0
3083 3148 6713 -6714 0
6713 -3083 -3148 -6714 0
3083 -6713 -3148 -6714 0
3148 -6713 -3083 -6714 0
6714 -6713 -3083 -3148 0
3083 3148 -6713 6714 0
3148 6713 -3083 6714 0
3083 6713 -3148 6714 0
3207 3269 6714 -6715 0
6714 -3207 -3269 -6715 0
3207 -6714 -3269 -6715 0
3269 -6714 -3207 -6715 0
6715 -6714 -3207 -3269 0
3207 3269 -6714 6715 0
3269 6714 -3207 6715 0
3207 6714 -3269 6715 0
3334 3393 6715 -6716 0
6715 -3334 -3393 -6716 0
3334 -6715 -3393 -6716 0
3393 -6715 -3334 -6716 0
6716 -6715 -3334 -3393 0
3334 3393 -6715 6716 0
3393 6715 -3334 6716 0
3334 6715 -3393 6716 0
3455 3517 6716 -6717 0
6716 -3455 -3517 -6717 0
3455 -6716 -3517 -6717 0
3517 -6716 -3455 -6717 0
6717 -6716 -3455 -3517 0
3455 3517 -6716 6717 0
3517 6716 -3455 6717 0
3455 6716 -3517 6717 0
3487 6705 6717 -6718 0
-6705 6717 -3487 -6718 0
6705 -6717 -3487 -6718 0
3487 -6705 -6717 -6718 0
-6705 -6717 -3487 6718 0
3487 6705 -6717 6718 0
3487 -6705 6717 6718 0
6705 6717 -3487 6718 0
3535 3611 6718 -6719 0
6718 -3535 -3611 -6719 0
3535 -6718 -3611 -6719 0
3611 -6718 -3535 -6719 0
6719 -6718 -3535 -3611 0
3535 3611 -6718 6719 0
3611 6718 -3535 6719 0
3535 6718 -3611 6719 0
3673 3735 6719 -6720 0
6719 -3673 -3735 -6720 0
3673 -6719 -3735 -6720 0
3735 -6719 -3673 -6720 0
6720 -6719 -3673 -3735 0
3673 3735 -6719 6720 0
3735 6719 -3673 6720 0
3673 6719 -3735 6720 0
3797 3859 6720 -6721 0
6720 -3797 -3859 -6721 0
3797 -6720 -3859 -6721 0
3859 -6720 -3797 -6721 0
6721 -6720 -3797 -3859 0
3797 3859 -6720 6721 0
3859 6720 -3797 6721 0
3797 6720 -3859 6721 0
3921 3983 6721 -6722 0
6721 -3921 -3983 -6722 0
3921 -6721 -3983 -6722 0
3983 -6721 -3921 -6722 0
6722 -6721 -3921 -3983 0
3921 3983 -6721 6722 0
3983 6721 -3921 6722 0
3921 6721 -3983 6722 0
4086 4136 6722 -6723 0
6722 -4086 -4136 -6723 0
4086 -6722 -4136 -6723 0
4136 -6722 -4086 -6723 0
6723 -6722 -4086 -4136 0
4086 4136 -6722 6723 0
4136 6722 -4086 6723 0
4086 6722 -4136 6723 0
4186 4236 6723 -6724 0
6723 -4186 -4236 -6724 0
4186 -6723 -4236 -6724 0
4236 -6723 -4186 -6724 0
6724 -6723 -4186 -4236 0
4186 4236 -6723 6724 0
4236 6723 -4186 6724 0
4186 6723 -4236 6724 0
4289 4339 6724 -6725 0
6724 -4289 -4339 -6725 0
4289 -6724 -4339 -6725 0
4339 -6724 -4289 -6725 0
6725 -6724 -4289 -4339 0
4289 4339 -6724 6725 0
4339 6724 -4289 6725 0
4289 6724 -4339 6725 0
4067 4107 4157 -6726 0
4067 -4107 -4157 -6726 0
4107 -4067 -4157 -6726 0
4157 -4067 -4107 -6726 0
-4067 -4107 -4157 6726 0
4107 4157 -4067 6726 0
4067 4157 -4107 6726 0
4067 4107 -4157 6726 0
4207 4257 6726 -6727 0
6726 -4207 -4257 -6727 0
4207 -6726 -4257 -6727 0
4257 -6726 -4207 -6727 0
6727 -6726 -4207 -4257 0
4207 4257 -6726 6727 0
4257 6726 -4207 6727 0
4207 6726 -4257 6727 0
4307 4357 6727 -6728 0
6727 -4307 -4357 -6728 0
4307 -6727 -4357 -6728 0
4357 -6727 -4307 -6728 0
6728 -6727 -4307 -4357 0
4307 4357 -6727 6728 0
4357 6727 -4307 6728 0
4307 6727 -4357 6728 0
4375 6725 6728 -6729 0
-6725 6728 -4375 -6729 0
6725 -6728 -4375 -6729 0
4375 -6725 -6728 -6729 0
-6725 -6728 -4375 6729 0
4375 6725 -6728 6729 0
4375 -6725 6728 6729 0
6725 6728 -4375 6729 0
4425 6697 6729 -6730 0
-6697 6729 -4425 -6730 0
6697 -6729 -4425 -6730 0
4425 -6697 -6729 -6730 0
-6697 -6729 -4425 6730 0
4425 6697 -6729 6730 0
4425 -6697 6729 6730 0
6697 6729 -4425 6730 0
6717 -3537 -6731 0
3537 -6717 -6731 0
6731 -6717 -3537 0
3537 6717 6731 0
2731 2814 6059 -6732 0
6059 -2731 -2814 -6732 0
2731 -6059 -2814 -6732 0
2814 -6059 -2731 -6732 0
6732 -6059 -2731 -2814 0
2731 2814 -6059 6732 0
2814 6059 -2731 6732 0
2731 6059 -2814 6732 0
2876 2938 6732 -6733 0
6732 -2876 -2938 -6733 0
2876 -6732 -2938 -6733 0
2938 -6732 -2876 -6733 0
6733 -6732 -2876 -2938 0
2876 2938 -6732 6733 0
2938 6732 -2876 6733 0
2876 6732 -2938 6733 0
3000 3059 6733 -6734 0
6733 -3000 -3059 -6734 0
3000 -6733 -3059 -6734 0
3059 -6733 -3000 -6734 0
6734 -6733 -3000 -3059 0
3000 3059 -6733 6734 0
3059 6733 -3000 6734 0
3000 6733 -3059 6734 0
3124 3183 6734 -6735 0
6734 -3124 -3183 -6735 0
3124 -6734 -3183 -6735 0
3183 -6734 -3124 -6735 0
6735 -6734 -3124 -3183 0
3124 3183 -6734 6735 0
3183 6734 -3124 6735 0
3124 6734 -3183 6735 0
3245 3310 6735 -6736 0
6735 -3245 -3310 -6736 0
3245 -6735 -3310 -6736 0
3310 -6735 -3245 -6736 0
6736 -6735 -3245 -3310 0
3245 3310 -6735 6736 0
3310 6735 -3245 6736 0
3245 6735 -3310 6736 0
3369 3431 6736 -6737 0
6736 -3369 -3431 -6737 0
3369 -6736 -3431 -6737 0
3431 -6736 -3369 -6737 0
6737 -6736 -3369 -3431 0
3369 3431 -6736 6737 0
3431 6736 -3369 6737 0
3369 6736 -3431 6737 0
3493 3555 6737 -6738 0
6737 -3493 -3555 -6738 0
3493 -6737 -3555 -6738 0
3555 -6737 -3493 -6738 0
6738 -6737 -3493 -3555 0
3493 3555 -6737 6738 0
3555 6737 -3493 6738 0
3493 6737 -3555 6738 0
3597 6731 6738 -6739 0
-6731 6738 -3597 -6739 0
6731 -6738 -3597 -6739 0
3597 -6731 -6738 -6739 0
-6731 -6738 -3597 6739 0
3597 6731 -6738 6739 0
3597 -6731 6738 6739 0
6731 6738 -3597 6739 0
3679 3744 6739 -6740 0
6739 -3679 -3744 -6740 0
3679 -6739 -3744 -6740 0
3744 -6739 -3679 -6740 0
6740 -6739 -3679 -3744 0
3679 3744 -6739 6740 0
3744 6739 -3679 6740 0
3679 6739 -3744 6740 0
3803 3868 6740 -6741 0
6740 -3803 -3868 -6741 0
3803 -6740 -3868 -6741 0
3868 -6740 -3803 -6741 0
6741 -6740 -3803 -3868 0
3803 3868 -6740 6741 0
3868 6740 -3803 6741 0
3803 6740 -3868 6741 0
3930 3992 6741 -6742 0
6741 -3930 -3992 -6742 0
3930 -6741 -3992 -6742 0
3992 -6741 -3930 -6742 0
6742 -6741 -3930 -3992 0
3930 3992 -6741 6742 0
3992 6741 -3930 6742 0
3930 6741 -3992 6742 0
4095 4145 6742 -6743 0
6742 -4095 -4145 -6743 0
4095 -6742 -4145 -6743 0
4145 -6742 -4095 -6743 0
6743 -6742 -4095 -4145 0
4095 4145 -6742 6743 0
4145 6742 -4095 6743 0
4095 6742 -4145 6743 0
4195 4245 6743 -6744 0
6743 -4195 -4245 -6744 0
4195 -6743 -4245 -6744 0
4245 -6743 -4195 -6744 0
6744 -6743 -4195 -4245 0
4195 4245 -6743 6744 0
4245 6743 -4195 6744 0
4195 6743 -4245 6744 0
4295 4345 6744 -6745 0
6744 -4295 -4345 -6745 0
4295 -6744 -4345 -6745 0
4345 -6744 -4295 -6745 0
6745 -6744 -4295 -4345 0
4295 4345 -6744 6745 0
4345 6744 -4295 6745 0
4295 6744 -4345 6745 0
4395 4445 6745 -6746 0
6745 -4395 -4445 -6746 0
4395 -6745 -4445 -6746 0
4445 -6745 -4395 -6746 0
6746 -6745 -4395 -4445 0
4395 4445 -6745 6746 0
4445 6745 -4395 6746 0
4395 6745 -4445 6746 0
4475 6730 6746 -6747 0
-6730 6746 -4475 -6747 0
6730 -6746 -4475 -6747 0
4475 -6730 -6746 -6747 0
-6730 -6746 -4475 6747 0
4475 6730 -6746 6747 0
4475 -6730 6746 6747 0
6730 6746 -4475 6747 0
4525 6695 6747 -6748 0
-6695 6747 -4525 -6748 0
6695 -6747 -4525 -6748 0
4525 -6695 -6747 -6748 0
-6695 -6747 -4525 6748 0
4525 6695 -6747 6748 0
4525 -6695 6747 6748 0
6695 6747 -4525 6748 0
4610 4660 6748 -6749 0
6748 -4610 -4660 -6749 0
4610 -6748 -4660 -6749 0
4660 -6748 -4610 -6749 0
6749 -6748 -4610 -4660 0
4610 4660 -6748 6749 0
4660 6748 -4610 6749 0
4610 6748 -4660 6749 0
4710 4760 6749 -6750 0
6749 -4710 -4760 -6750 0
4710 -6749 -4760 -6750 0
4760 -6749 -4710 -6750 0
6750 -6749 -4710 -4760 0
4710 4760 -6749 6750 0
4760 6749 -4710 6750 0
4710 6749 -4760 6750 0
4810 4860 6750 -6751 0
6750 -4810 -4860 -6751 0
4810 -6750 -4860 -6751 0
4860 -6750 -4810 -6751 0
6751 -6750 -4810 -4860 0
4810 4860 -6750 6751 0
4860 6750 -4810 6751 0
4810 6750 -4860 6751 0
4910 4960 6751 -6752 0
6751 -4910 -4960 -6752 0
4910 -6751 -4960 -6752 0
4960 -6751 -4910 -6752 0
6752 -6751 -4910 -4960 0
4910 4960 -6751 6752 0
4960 6751 -4910 6752 0
4910 6751 -4960 6752 0
5010 5060 6752 -6753 0
6752 -5010 -5060 -6753 0
5010 -6752 -5060 -6753 0
5060 -6752 -5010 -6753 0
6753 -6752 -5010 -5060 0
5010 5060 -6752 6753 0
5060 6752 -5010 6753 0
5010 6752 -5060 6753 0
5110 5160 6753 -6754 0
6753 -5110 -5160 -6754 0
5110 -6753 -5160 -6754 0
5160 -6753 -5110 -6754 0
6754 -6753 -5110 -5160 0
5110 5160 -6753 6754 0
5160 6753 -5110 6754 0
5110 6753 -5160 6754 0
5210 5260 6754 -6755 0
6754 -5210 -5260 -6755 0
5210 -6754 -5260 -6755 0
5260 -6754 -5210 -6755 0
6755 -6754 -5210 -5260 0
5210 5260 -6754 6755 0
5260 6754 -5210 6755 0
5210 6754 -5260 6755 0
5945 -3410 -6756 0
3410 -5945 -6756 0
6756 -5945 -3410 0
3410 5945 6756 0
3483 3545 6756 -6757 0
6756 -3483 -3545 -6757 0
3483 -6756 -3545 -6757 0
3545 -6756 -3483 -6757 0
6757 -6756 -3483 -3545 0
3483 3545 -6756 6757 0
3545 6756 -3483 6757 0
3483 6756 -3545 6757 0
3607 3669 6757 -6758 0
6757 -3607 -3669 -6758 0
3607 -6757 -3669 -6758 0
3669 -6757 -3607 -6758 0
6758 -6757 -3607 -3669 0
3607 3669 -6757 6758 0
3669 6757 -3607 6758 0
3607 6757 -3669 6758 0
3731 3793 6758 -6759 0
6758 -3731 -3793 -6759 0
3731 -6758 -3793 -6759 0
3793 -6758 -3731 -6759 0
6759 -6758 -3731 -3793 0
3731 3793 -6758 6759 0
3793 6758 -3731 6759 0
3731 6758 -3793 6759 0
3855 3917 6759 -6760 0
6759 -3855 -3917 -6760 0
3855 -6759 -3917 -6760 0
3917 -6759 -3855 -6760 0
6760 -6759 -3855 -3917 0
3855 3917 -6759 6760 0
3917 6759 -3855 6760 0
3855 6759 -3917 6760 0
4082 3979 6760 -6761 0
6760 -3979 -4082 -6761 0
3979 -6760 -4082 -6761 0
4082 -6760 -3979 -6761 0
6761 -6760 -3979 -4082 0
4082 3979 -6760 6761 0
4082 6760 -3979 6761 0
3979 6760 -4082 6761 0
4132 4182 6761 -6762 0
6761 -4132 -4182 -6762 0
4132 -6761 -4182 -6762 0
4182 -6761 -4132 -6762 0
6762 -6761 -4132 -4182 0
4132 4182 -6761 6762 0
4182 6761 -4132 6762 0
4132 6761 -4182 6762 0
4226 6395 6762 -6763 0
-6395 6762 -4226 -6763 0
6395 -6762 -4226 -6763 0
4226 -6395 -6762 -6763 0
-6395 -6762 -4226 6763 0
4226 6395 -6762 6763 0
4226 -6395 6762 6763 0
6395 6762 -4226 6763 0
4285 4335 6763 -6764 0
6763 -4285 -4335 -6764 0
4285 -6763 -4335 -6764 0
4335 -6763 -4285 -6764 0
6764 -6763 -4285 -4335 0
4285 4335 -6763 6764 0
4335 6763 -4285 6764 0
4285 6763 -4335 6764 0
4385 4435 6764 -6765 0
6764 -4385 -4435 -6765 0
4385 -6764 -4435 -6765 0
4435 -6764 -4385 -6765 0
6765 -6764 -4385 -4435 0
4385 4435 -6764 6765 0
4435 6764 -4385 6765 0
4385 6764 -4435 6765 0
4485 4535 6765 -6766 0
6765 -4485 -4535 -6766 0
4485 -6765 -4535 -6766 0
4535 -6765 -4485 -6766 0
6766 -6765 -4485 -4535 0
4485 4535 -6765 6766 0
4535 6765 -4485 6766 0
4485 6765 -4535 6766 0
4585 4635 6766 -6767 0
6766 -4585 -4635 -6767 0
4585 -6766 -4635 -6767 0
4635 -6766 -4585 -6767 0
6767 -6766 -4585 -4635 0
4585 4635 -6766 6767 0
4635 6766 -4585 6767 0
4585 6766 -4635 6767 0
4682 4732 6767 -6768 0
6767 -4682 -4732 -6768 0
4682 -6767 -4732 -6768 0
4732 -6767 -4682 -6768 0
6768 -6767 -4682 -4732 0
4682 4732 -6767 6768 0
4732 6767 -4682 6768 0
4682 6767 -4732 6768 0
4785 4835 6768 -6769 0
6768 -4785 -4835 -6769 0
4785 -6768 -4835 -6769 0
4835 -6768 -4785 -6769 0
6769 -6768 -4785 -4835 0
4785 4835 -6768 6769 0
4835 6768 -4785 6769 0
4785 6768 -4835 6769 0
4070 4115 4165 -6770 0
4070 -4115 -4165 -6770 0
4115 -4070 -4165 -6770 0
4165 -4070 -4115 -6770 0
-4070 -4115 -4165 6770 0
4115 4165 -4070 6770 0
4070 4165 -4115 6770 0
4070 4115 -4165 6770 0
4215 4265 6770 -6771 0
6770 -4215 -4265 -6771 0
4215 -6770 -4265 -6771 0
4265 -6770 -4215 -6771 0
6771 -6770 -4215 -4265 0
4215 4265 -6770 6771 0
4265 6770 -4215 6771 0
4215 6770 -4265 6771 0
4315 4365 6771 -6772 0
6771 -4315 -4365 -6772 0
4315 -6771 -4365 -6772 0
4365 -6771 -4315 -6772 0
6772 -6771 -4315 -4365 0
4315 4365 -6771 6772 0
4365 6771 -4315 6772 0
4315 6771 -4365 6772 0
4415 4465 6772 -6773 0
6772 -4415 -4465 -6773 0
4415 -6772 -4465 -6773 0
4465 -6772 -4415 -6773 0
6773 -6772 -4415 -4465 0
4415 4465 -6772 6773 0
4465 6772 -4415 6773 0
4415 6772 -4465 6773 0
4515 4565 6773 -6774 0
6773 -4515 -4565 -6774 0
4515 -6773 -4565 -6774 0
4565 -6773 -4515 -6774 0
6774 -6773 -4515 -4565 0
4515 4565 -6773 6774 0
4565 6773 -4515 6774 0
4515 6773 -4565 6774 0
4615 4665 6774 -6775 0
6774 -4615 -4665 -6775 0
4615 -6774 -4665 -6775 0
4665 -6774 -4615 -6775 0
6775 -6774 -4615 -4665 0
4615 4665 -6774 6775 0
4665 6774 -4615 6775 0
4615 6774 -4665 6775 0
4715 4765 6775 -6776 0
6775 -4715 -4765 -6776 0
4715 -6775 -4765 -6776 0
4765 -6775 -4715 -6776 0
6776 -6775 -4715 -4765 0
4715 4765 -6775 6776 0
4765 6775 -4715 6776 0
4715 6775 -4765 6776 0
4815 4865 6776 -6777 0
6776 -4815 -4865 -6777 0
4815 -6776 -4865 -6777 0
4865 -6776 -4815 -6777 0
6777 -6776 -4815 -4865 0
4815 4865 -6776 6777 0
4865 6776 -4815 6777 0
4815 6776 -4865 6777 0
4876 6769 6777 -6778 0
-6769 6777 -4876 -6778 0
6769 -6777 -4876 -6778 0
4876 -6769 -6777 -6778 0
-6769 -6777 -4876 6778 0
4876 6769 -6777 6778 0
4876 -6769 6777 6778 0
6769 6777 -4876 6778 0
4926 6496 6778 -6779 0
-6496 6778 -4926 -6779 0
6496 -6778 -4926 -6779 0
4926 -6496 -6778 -6779 0
-6496 -6778 -4926 6779 0
4926 6496 -6778 6779 0
4926 -6496 6778 6779 0
6496 6778 -4926 6779 0
5018 5068 6779 -6780 0
6779 -5018 -5068 -6780 0
5018 -6779 -5068 -6780 0
5068 -6779 -5018 -6780 0
6780 -6779 -5018 -5068 0
5018 5068 -6779 6780 0
5068 6779 -5018 6780 0
5018 6779 -5068 6780 0
5118 5168 6780 -6781 0
6780 -5118 -5168 -6781 0
5118 -6780 -5168 -6781 0
5168 -6780 -5118 -6781 0
6781 -6780 -5118 -5168 0
5118 5168 -6780 6781 0
5168 6780 -5118 6781 0
5118 6780 -5168 6781 0
5218 5268 6781 -6782 0
6781 -5218 -5268 -6782 0
5218 -6781 -5268 -6782 0
5268 -6781 -5218 -6782 0
6782 -6781 -5218 -5268 0
5218 5268 -6781 6782 0
5268 6781 -5218 6782 0
5218 6781 -5268 6782 0
6782 6783 0
6755 6783 0
-6755 -6782 -6783 0
-5910 6784 0
-6678 6784 0
5910 6678 -6784 0
6526 6785 0
-6782 6785 0
-6526 6782 -6785 0
5869 5910 6786 0
-5869 5910 -6618 -6785 6786 0
-5910 -6384 6786 0
6784 6786 0
6783 6786 0
5869 -5910 6384 -6783 -6784 -6786 0
-5910 6384 -6783 -6784 -6786 0
-5869 -5910 6384 -6783 -6784 -6786 0
-5910 6384 6618 -6783 -6784 -6786 0
-5869 6384 6618 -6783 -6784 -6786 0
-5910 6384 -6783 -6784 6785 -6786 0
-5869 6384 -6783 -6784 6785 -6786 0
-5869 5910 6618 -6783 -6784 -6786 0
-5869 5910 -6783 -6784 6785 -6786 0
5244 6681 6786 -6787 0
-6681 6786 -5244 -6787 0
6681 -6786 -5244 -6787 0
5244 -6681 -6786 -6787 0
-6681 -6786 -5244 6787 0
5244 6681 -6786 6787 0
5244 -6681 6786 6787 0
6681 6786 -5244 6787 0
-6680 6787 -6788 0
6680 -6787 -6788 0
-6680 -6787 6788 0
6680 6787 6788 0
6484 -5174 -6789 0
5174 -6484 -6789 0
6789 -6484 -5174 0
5174 6484 6789 0
6225 6790 0
6384 6790 0
6647 6790 0
6526 6790 0
-6463 6790 0
6782 6790 0
-6225 -6384 6463 -6526 -6647 -6782 -6790 0
5250 6789 6790 -6791 0
-6789 6790 -5250 -6791 0
6789 -6790 -5250 -6791 0
5250 -6789 -6790 -6791 0
-6789 -6790 -5250 6791 0
5250 6789 -6790 6791 0
5250 -6789 6790 6791 0
6789 6790 -5250 6791 0
-5910 6792 0
-6384 6792 0
5750 6792 0
5910 6384 -5750 -6792 0
5224 6525 6792 -6793 0
-6525 6792 -5224 -6793 0
6525 -6792 -5224 -6793 0
5224 -6525 -6792 -6793 0
-6525 -6792 -5224 6793 0
5224 6525 -6792 6793 0
5224 -6525 6792 6793 0
6525 6792 -5224 6793 0
6788 6791 6793 -6794 0
-6788 -6791 6793 -6794 0
-6788 6791 -6793 -6794 0
6788 -6791 -6793 -6794 0
-6788 -6791 -6793 6794 0
6788 6791 -6793 6794 0
6788 -6791 6793 6794 0
-6788 6791 6793 6794 0
4874 4935 6769 -6795 0
6769 -4874 -4935 -6795 0
4874 -6769 -4935 -6795 0
4935 -6769 -4874 -6795 0
6795 -6769 -4874 -4935 0
4874 4935 -6769 6795 0
4935 6769 -4874 6795 0
4874 6769 -4935 6795 0
4985 5035 6795 -6796 0
6795 -4985 -5035 -6796 0
4985 -6795 -5035 -6796 0
5035 -6795 -4985 -6796 0
6796 -6795 -4985 -5035 0
4985 5035 -6795 6796 0
5035 6795 -4985 6796 0
4985 6795 -5035 6796 0
5085 5135 6796 -6797 0
6796 -5085 -5135 -6797 0
5085 -6796 -5135 -6797 0
5135 -6796 -5085 -6797 0
6797 -6796 -5085 -5135 0
5085 5135 -6796 6797 0
5135 6796 -5085 6797 0
5085 6796 -5135 6797 0
5185 5235 6797 -6798 0
6797 -5185 -5235 -6798 0
5185 -6797 -5235 -6798 0
5235 -6797 -5185 -6798 0
6798 -6797 -5185 -5235 0
5185 5235 -6797 6798 0
5235 6797 -5185 6798 0
5185 6797 -5235 6798 0
6617 6799 0
6463 6799 0
-6782 6799 0
-6463 -6617 6782 -6799 0
6384 6800 0
-6618 -6782 6800 0
5869 6384 6800 0
5910 -6526 6800 0
5910 6678 -6782 6800 0
6799 6800 0
-5869 -5910 -6384 6782 -6799 -6800 0
-5869 -5910 -6384 6618 -6799 -6800 0
-5910 -6384 6782 -6799 -6800 0
-5910 -6384 6618 -6799 -6800 0
-5869 -5910 -6384 6526 6782 -6799 -6800 0
-5869 -5910 -6384 6526 6618 -6799 -6800 0
-5910 -6384 6526 6782 -6799 -6800 0
-5910 -6384 6526 6618 -6799 -6800 0
-5869 -5910 -6384 -6678 6782 -6799 -6800 0
-5869 -5910 -6384 6618 -6678 -6799 -6800 0
-5910 -6384 -6678 6782 -6799 -6800 0
-5910 -6384 6618 -6678 -6799 -6800 0
-5869 -6384 6526 -6678 6782 -6799 -6800 0
-5869 -6384 6526 6618 -6678 -6799 -6800 0
-6384 6526 -6678 6782 -6799 -6800 0
-6384 6526 6618 -6678 -6799 -6800 0
-5869 -5910 -6384 6618 6782 -6799 -6800 0
-5910 -6384 6618 6782 -6799 -6800 0
-5869 -6384 6526 6782 -6799 -6800 0
-5869 -6384 6526 6618 6782 -6799 -6800 0
-6384 6526 6782 -6799 -6800 0
-6384 6526 6618 6782 -6799 -6800 0
6787 6798 6800 -6801 0
6787 -6798 -6800 -6801 0
-6787 -6798 6800 -6801 0
-6787 6798 -6800 -6801 0
-6787 -6798 -6800 6801 0
-6787 6798 6800 6801 0
6787 6798 -6800 6801 0
6787 -6798 6800 6801 0
4122 -4172 -6802 0
4172 -4122 -6802 0
6802 -4122 -4172 0
6802 4122 4172 0
4222 4272 6802 -6803 0
6802 -4222 -4272 -6803 0
4222 -6802 -4272 -6803 0
4272 -6802 -4222 -6803 0
6803 -6802 -4222 -4272 0
4222 4272 -6802 6803 0
4272 6802 -4222 6803 0
4222 6802 -4272 6803 0
4322 4372 6803 -6804 0
6803 -4322 -4372 -6804 0
4322 -6803 -4372 -6804 0
4372 -6803 -4322 -6804 0
6804 -6803 -4322 -4372 0
4322 4372 -6803 6804 0
4372 6803 -4322 6804 0
4322 6803 -4372 6804 0
4422 4472 6804 -6805 0
6804 -4422 -4472 -6805 0
4422 -6804 -4472 -6805 0
4472 -6804 -4422 -6805 0
6805 -6804 -4422 -4472 0
4422 4472 -6804 6805 0
4472 6804 -4422 6805 0
4422 6804 -4472 6805 0
4522 4572 6805 -6806 0
6805 -4522 -4572 -6806 0
4522 -6805 -4572 -6806 0
4572 -6805 -4522 -6806 0
6806 -6805 -4522 -4572 0
4522 4572 -6805 6806 0
4572 6805 -4522 6806 0
4522 6805 -4572 6806 0
4622 4672 6806 -6807 0
6806 -4622 -4672 -6807 0
4622 -6806 -4672 -6807 0
4672 -6806 -4622 -6807 0
6807 -6806 -4622 -4672 0
4622 4672 -6806 6807 0
4672 6806 -4622 6807 0
4622 6806 -4672 6807 0
4722 4772 6807 -6808 0
6807 -4722 -4772 -6808 0
4722 -6807 -4772 -6808 0
4772 -6807 -4722 -6808 0
6808 -6807 -4722 -4772 0
4722 4772 -6807 6808 0
4772 6807 -4722 6808 0
4722 6807 -4772 6808 0
4822 4872 6808 -6809 0
6808 -4822 -4872 -6809 0
4822 -6808 -4872 -6809 0
4872 -6808 -4822 -6809 0
6809 -6808 -4822 -4872 0
4822 4872 -6808 6809 0
4872 6808 -4822 6809 0
4822 6808 -4872 6809 0
4922 4972 6809 -6810 0
6809 -4922 -4972 -6810 0
4922 -6809 -4972 -6810 0
4972 -6809 -4922 -6810 0
6810 -6809 -4922 -4972 0
4922 4972 -6809 6810 0
4972 6809 -4922 6810 0
4922 6809 -4972 6810 0
5022 5072 6810 -6811 0
6810 -5022 -5072 -6811 0
5022 -6810 -5072 -6811 0
5072 -6810 -5022 -6811 0
6811 -6810 -5022 -5072 0
5022 5072 -6810 6811 0
5072 6810 -5022 6811 0
5022 6810 -5072 6811 0
6811 -5077 -6812 0
5077 -6811 -6812 0
6812 -6811 -5077 0
5077 6811 6812 0
6812 -5127 -6813 0
5127 -6812 -6813 0
6813 -6812 -5127 0
5127 6812 6813 0
6813 -5177 -6814 0
5177 -6813 -6814 0
6814 -6813 -5177 0
5177 6813 6814 0
5452 -3909 -6815 0
3909 -5452 -6815 0
6815 -5452 -3909 0
3909 5452 6815 0
6190 -2979 -6816 0
2979 -6190 -6816 0
6816 -6190 -2979 0
2979 6190 6816 0
3065 3130 6816 -6817 0
6816 -3065 -3130 -6817 0
3065 -6816 -3130 -6817 0
3130 -6816 -3065 -6817 0
6817 -6816 -3065 -3130 0
3065 3130 -6816 6817 0
3130 6816 -3065 6817 0
3065 6816 -3130 6817 0
3189 3251 6817 -6818 0
6817 -3189 -3251 -6818 0
3189 -6817 -3251 -6818 0
3251 -6817 -3189 -6818 0
6818 -6817 -3189 -3251 0
3189 3251 -6817 6818 0
3251 6817 -3189 6818 0
3189 6817 -3251 6818 0
3316 3375 6818 -6819 0
6818 -3316 -3375 -6819 0
3316 -6818 -3375 -6819 0
3375 -6818 -3316 -6819 0
6819 -6818 -3316 -3375 0
3316 3375 -6818 6819 0
3375 6818 -3316 6819 0
3316 6818 -3375 6819 0
3437 3499 6819 -6820 0
6819 -3437 -3499 -6820 0
3437 -6819 -3499 -6820 0
3499 -6819 -3437 -6820 0
6820 -6819 -3437 -3499 0
3437 3499 -6819 6820 0
3499 6819 -3437 6820 0
3437 6819 -3499 6820 0
3561 3623 6820 -6821 0
6820 -3561 -3623 -6821 0
3561 -6820 -3623 -6821 0
3623 -6820 -3561 -6821 0
6821 -6820 -3561 -3623 0
3561 3623 -6820 6821 0
3623 6820 -3561 6821 0
3561 6820 -3623 6821 0
3685 3750 6821 -6822 0
6821 -3685 -3750 -6822 0
3685 -6821 -3750 -6822 0
3750 -6821 -3685 -6822 0
6822 -6821 -3685 -3750 0
3685 3750 -6821 6822 0
3750 6821 -3685 6822 0
3685 6821 -3750 6822 0
3809 3871 6822 -6823 0
6822 -3809 -3871 -6823 0
3809 -6822 -3871 -6823 0
3871 -6822 -3809 -6823 0
6823 -6822 -3809 -3871 0
3809 3871 -6822 6823 0
3871 6822 -3809 6823 0
3809 6822 -3871 6823 0
3936 6815 6823 -6824 0
-6815 6823 -3936 -6824 0
3936 -6815 -6823 -6824 0
6815 -6823 -3936 -6824 0
-6815 -6823 -3936 6824 0
3936 6815 -6823 6824 0
6815 6823 -3936 6824 0
3936 -6815 6823 6824 0
4101 3969 6824 -6825 0
6824 -3969 -4101 -6825 0
3969 -6824 -4101 -6825 0
4101 -6824 -3969 -6825 0
6825 -6824 -3969 -4101 0
4101 3969 -6824 6825 0
4101 6824 -3969 6825 0
3969 6824 -4101 6825 0
4151 4201 6825 -6826 0
6825 -4151 -4201 -6826 0
4151 -6825 -4201 -6826 0
4201 -6825 -4151 -6826 0
6826 -6825 -4151 -4201 0
4151 4201 -6825 6826 0
4201 6825 -4151 6826 0
4151 6825 -4201 6826 0
4251 4301 6826 -6827 0
6826 -4251 -4301 -6827 0
4251 -6826 -4301 -6827 0
4301 -6826 -4251 -6827 0
6827 -6826 -4251 -4301 0
4251 4301 -6826 6827 0
4301 6826 -4251 6827 0
4251 6826 -4301 6827 0
4351 4401 6827 -6828 0
6827 -4351 -4401 -6828 0
4351 -6827 -4401 -6828 0
4401 -6827 -4351 -6828 0
6828 -6827 -4351 -4401 0
4351 4401 -6827 6828 0
4401 6827 -4351 6828 0
4351 6827 -4401 6828 0
4451 4501 6828 -6829 0
6828 -4451 -4501 -6829 0
4451 -6828 -4501 -6829 0
4501 -6828 -4451 -6829 0
6829 -6828 -4451 -4501 0
4451 4501 -6828 6829 0
4501 6828 -4451 6829 0
4451 6828 -4501 6829 0
4551 4601 6829 -6830 0
6829 -4551 -4601 -6830 0
4551 -6829 -4601 -6830 0
4601 -6829 -4551 -6830 0
-6829 -4551 -4601 6830 0
4551 4601 -6829 6830 0
4601 6829 -4551 6830 0
4551 6829 -4601 6830 0
6830 -4627 -6831 0
4627 -6830 -6831 0
6831 -6830 -4627 0
4627 6830 6831 0
4701 4751 6831 -6832 0
6831 -4701 -4751 -6832 0
4701 -6831 -4751 -6832 0
4751 -6831 -4701 -6832 0
6832 -6831 -4701 -4751 0
4701 4751 -6831 6832 0
4751 6831 -4701 6832 0
4701 6831 -4751 6832 0
4801 4851 6832 -6833 0
6832 -4801 -4851 -6833 0
4801 -6832 -4851 -6833 0
4851 -6832 -4801 -6833 0
6833 -6832 -4801 -4851 0
4801 4851 -6832 6833 0
4851 6832 -4801 6833 0
4801 6832 -4851 6833 0
4901 4951 6833 -6834 0
6833 -4901 -4951 -6834 0
4901 -6833 -4951 -6834 0
4951 -6833 -4901 -6834 0
6834 -6833 -4901 -4951 0
4901 4951 -6833 6834 0
4951 6833 -4901 6834 0
4901 6833 -4951 6834 0
5001 5051 6834 -6835 0
6834 -5001 -5051 -6835 0
5001 -6834 -5051 -6835 0
5051 -6834 -5001 -6835 0
6835 -6834 -5001 -5051 0
5001 5051 -6834 6835 0
5051 6834 -5001 6835 0
5001 6834 -5051 6835 0
5101 5151 6835 -6836 0
6835 -5101 -5151 -6836 0
5101 -6835 -5151 -6836 0
5151 -6835 -5101 -6836 0
6836 -6835 -5101 -5151 0
5101 5151 -6835 6836 0
5151 6835 -5101 6836 0
5101 6835 -5151 6836 0
5201 6814 6836 -6837 0
-6814 6836 -5201 -6837 0
5201 -6814 -6836 -6837 0
6814 -6836 -5201 -6837 0
-6814 -6836 -5201 6837 0
5201 6814 -6836 6837 0
6814 6836 -5201 6837 0
5201 -6814 6836 6837 0
6695 -4527 -6838 0
4527 -6695 -6838 0
6838 -6695 -4527 0
4527 6695 6838 0
4068 4110 4160 -6839 0
4068 -4110 -4160 -6839 0
4110 -4068 -4160 -6839 0
4160 -4068 -4110 -6839 0
-4068 -4110 -4160 6839 0
4110 4160 -4068 6839 0
4068 4160 -4110 6839 0
4068 4110 -4160 6839 0
4210 4260 6839 -6840 0
6839 -4210 -4260 -6840 0
4210 -6839 -4260 -6840 0
4260 -6839 -4210 -6840 0
6840 -6839 -4210 -4260 0
4210 4260 -6839 6840 0
4260 6839 -4210 6840 0
4210 6839 -4260 6840 0
4310 4360 6840 -6841 0
6840 -4310 -4360 -6841 0
4310 -6840 -4360 -6841 0
4360 -6840 -4310 -6841 0
6841 -6840 -4310 -4360 0
4310 4360 -6840 6841 0
4360 6840 -4310 6841 0
4310 6840 -4360 6841 0
4410 4460 6841 -6842 0
6841 -4410 -4460 -6842 0
4410 -6841 -4460 -6842 0
4460 -6841 -4410 -6842 0
6842 -6841 -4410 -4460 0
4410 4460 -6841 6842 0
4460 6841 -4410 6842 0
4410 6841 -4460 6842 0
4510 4560 6842 -6843 0
6842 -4510 -4560 -6843 0
4510 -6842 -4560 -6843 0
4560 -6842 -4510 -6843 0
6843 -6842 -4510 -4560 0
4510 4560 -6842 6843 0
4560 6842 -4510 6843 0
4510 6842 -4560 6843 0
4575 6838 6843 -6844 0
-6838 6843 -4575 -6844 0
6838 -6843 -4575 -6844 0
4575 -6838 -6843 -6844 0
-6838 -6843 -4575 6844 0
4575 6838 -6843 6844 0
4575 -6838 6843 6844 0
6838 6843 -4575 6844 0
4625 6830 6844 -6845 0
-6830 6844 -4625 -6845 0
6830 -6844 -4625 -6845 0
4625 -6830 -6844 -6845 0
-6830 -6844 -4625 6845 0
4625 6830 -6844 6845 0
4625 -6830 6844 6845 0
6830 6844 -4625 6845 0
4713 4763 6845 -6846 0
6845 -4713 -4763 -6846 0
4713 -6845 -4763 -6846 0
4763 -6845 -4713 -6846 0
6846 -6845 -4713 -4763 0
4713 4763 -6845 6846 0
4763 6845 -4713 6846 0
4713 6845 -4763 6846 0
4813 4863 6846 -6847 0
6846 -4813 -4863 -6847 0
4813 -6846 -4863 -6847 0
4863 -6846 -4813 -6847 0
6847 -6846 -4813 -4863 0
4813 4863 -6846 6847 0
4863 6846 -4813 6847 0
4813 6846 -4863 6847 0
4913 4963 6847 -6848 0
6847 -4913 -4963 -6848 0
4913 -6847 -4963 -6848 0
4963 -6847 -4913 -6848 0
6848 -6847 -4913 -4963 0
4913 4963 -6847 6848 0
4963 6847 -4913 6848 0
4913 6847 -4963 6848 0
5013 5063 6848 -6849 0
6848 -5013 -5063 -6849 0
5013 -6848 -5063 -6849 0
5063 -6848 -5013 -6849 0
6849 -6848 -5013 -5063 0
5013 5063 -6848 6849 0
5063 6848 -5013 6849 0
5013 6848 -5063 6849 0
5113 5163 6849 -6850 0
6849 -5113 -5163 -6850 0
5113 -6849 -5163 -6850 0
5163 -6849 -5113 -6850 0
6850 -6849 -5113 -5163 0
5113 5163 -6849 6850 0
5163 6849 -5113 6850 0
5113 6849 -5163 6850 0
5213 5263 6850 -6851 0
6850 -5213 -5263 -6851 0
5213 -6850 -5263 -6851 0
5263 -6850 -5213 -6851 0
6851 -6850 -5213 -5263 0
5213 5263 -6850 6851 0
5263 6850 -5213 6851 0
5213 6850 -5263 6851 0
6225 6852 0
6851 6852 0
-6225 -6851 -6852 0
4577 4651 6838 -6853 0
6838 -4577 -4651 -6853 0
4577 -6838 -4651 -6853 0
4651 -6838 -4577 -6853 0
6853 -6838 -4577 -4651 0
4577 4651 -6838 6853 0
4651 6838 -4577 6853 0
4577 6838 -4651 6853 0
4698 4748 6853 -6854 0
6853 -4698 -4748 -6854 0
4698 -6853 -4748 -6854 0
4748 -6853 -4698 -6854 0
6854 -6853 -4698 -4748 0
4698 4748 -6853 6854 0
4748 6853 -4698 6854 0
4698 6853 -4748 6854 0
4798 4848 6854 -6855 0
6854 -4798 -4848 -6855 0
4798 -6854 -4848 -6855 0
4848 -6854 -4798 -6855 0
6855 -6854 -4798 -4848 0
4798 4848 -6854 6855 0
4848 6854 -4798 6855 0
4798 6854 -4848 6855 0
4898 4948 6855 -6856 0
6855 -4898 -4948 -6856 0
4898 -6855 -4948 -6856 0
4948 -6855 -4898 -6856 0
6856 -6855 -4898 -4948 0
4898 4948 -6855 6856 0
4948 6855 -4898 6856 0
4898 6855 -4948 6856 0
4998 5048 6856 -6857 0
6856 -4998 -5048 -6857 0
4998 -6856 -5048 -6857 0
5048 -6856 -4998 -6857 0
6857 -6856 -4998 -5048 0
4998 5048 -6856 6857 0
5048 6856 -4998 6857 0
4998 6856 -5048 6857 0
5098 5148 6857 -6858 0
6857 -5098 -5148 -6858 0
5098 -6857 -5148 -6858 0
5148 -6857 -5098 -6858 0
6858 -6857 -5098 -5148 0
5098 5148 -6857 6858 0
5148 6857 -5098 6858 0
5098 6857 -5148 6858 0
5175 6813 6858 -6859 0
6813 -6858 -5175 -6859 0
-6813 6858 -5175 -6859 0
5175 -6813 -6858 -6859 0
6859 -6813 -6858 -5175 0
5175 -6813 6858 6859 0
5175 6813 -6858 6859 0
6813 6858 -5175 6859 0
5251 6852 6859 -6860 0
-6852 6859 -5251 -6860 0
5251 -6852 -6859 -6860 0
6852 -6859 -5251 -6860 0
-6852 -6859 -5251 6860 0
5251 6852 -6859 6860 0
6852 6859 -5251 6860 0
5251 -6852 6859 6860 0
5225 6837 6860 -6861 0
-6837 6860 -5225 -6861 0
6837 -6860 -5225 -6861 0
5225 -6837 -6860 -6861 0
-6837 -6860 -5225 6861 0
5225 6837 -6860 6861 0
5225 -6837 6860 6861 0
6837 6860 -5225 6861 0
4116 -4166 -6862 0
4166 -4116 -6862 0
6862 -4116 -4166 0
6862 4116 4166 0
4216 4266 6862 -6863 0
6862 -4216 -4266 -6863 0
4216 -6862 -4266 -6863 0
4266 -6862 -4216 -6863 0
6863 -6862 -4216 -4266 0
4216 4266 -6862 6863 0
4266 6862 -4216 6863 0
4216 6862 -4266 6863 0
4316 4366 6863 -6864 0
6863 -4316 -4366 -6864 0
4316 -6863 -4366 -6864 0
4366 -6863 -4316 -6864 0
6864 -6863 -4316 -4366 0
4316 4366 -6863 6864 0
4366 6863 -4316 6864 0
4316 6863 -4366 6864 0
4416 4466 6864 -6865 0
6864 -4416 -4466 -6865 0
4416 -6864 -4466 -6865 0
4466 -6864 -4416 -6865 0
6865 -6864 -4416 -4466 0
4416 4466 -6864 6865 0
4466 6864 -4416 6865 0
4416 6864 -4466 6865 0
4516 4566 6865 -6866 0
6865 -4516 -4566 -6866 0
4516 -6865 -4566 -6866 0
4566 -6865 -4516 -6866 0
6866 -6865 -4516 -4566 0
4516 4566 -6865 6866 0
4566 6865 -4516 6866 0
4516 6865 -4566 6866 0
4616 4666 6866 -6867 0
6866 -4616 -4666 -6867 0
4616 -6866 -4666 -6867 0
4666 -6866 -4616 -6867 0
6867 -6866 -4616 -4666 0
4616 4666 -6866 6867 0
4666 6866 -4616 6867 0
4616 6866 -4666 6867 0
4716 4766 6867 -6868 0
6867 -4716 -4766 -6868 0
4716 -6867 -4766 -6868 0
4766 -6867 -4716 -6868 0
6868 -6867 -4716 -4766 0
4716 4766 -6867 6868 0
4766 6867 -4716 6868 0
4716 6867 -4766 6868 0
4816 4866 6868 -6869 0
6868 -4816 -4866 -6869 0
4816 -6868 -4866 -6869 0
4866 -6868 -4816 -6869 0
6869 -6868 -4816 -4866 0
4816 4866 -6868 6869 0
4866 6868 -4816 6869 0
4816 6868 -4866 6869 0
6869 -4877 -6870 0
4877 -6869 -6870 0
6870 -6869 -4877 0
4877 6869 6870 0
4327 4392 6555 -6871 0
6555 -4327 -4392 -6871 0
4327 -6555 -4392 -6871 0
4392 -6555 -4327 -6871 0
6871 -6555 -4327 -4392 0
4327 4392 -6555 6871 0
4392 6555 -4327 6871 0
4327 6555 -4392 6871 0
4442 4495 6871 -6872 0
6871 -4442 -4495 -6872 0
4442 -6871 -4495 -6872 0
4495 -6871 -4442 -6872 0
6872 -6871 -4442 -4495 0
4442 4495 -6871 6872 0
4495 6871 -4442 6872 0
4442 6871 -4495 6872 0
4545 4595 6872 -6873 0
6872 -4545 -4595 -6873 0
4545 -6872 -4595 -6873 0
4595 -6872 -4545 -6873 0
-6872 -4545 -4595 6873 0
4545 4595 -6872 6873 0
4595 6872 -4545 6873 0
4545 6872 -4595 6873 0
4645 4692 6873 -6874 0
6873 -4645 -4692 -6874 0
4645 -6873 -4692 -6874 0
4692 -6873 -4645 -6874 0
6874 -6873 -4645 -4692 0
4645 4692 -6873 6874 0
4692 6873 -4645 6874 0
4645 6873 -4692 6874 0
4742 4792 6874 -6875 0
6874 -4742 -4792 -6875 0
4742 -6874 -4792 -6875 0
4792 -6874 -4742 -6875 0
6875 -6874 -4742 -4792 0
4742 4792 -6874 6875 0
4792 6874 -4742 6875 0
4742 6874 -4792 6875 0
4842 4892 6875 -6876 0
6875 -4842 -4892 -6876 0
4842 -6875 -4892 -6876 0
4892 -6875 -4842 -6876 0
6876 -6875 -4842 -4892 0
4842 4892 -6875 6876 0
4892 6875 -4842 6876 0
4842 6875 -4892 6876 0
4925 6870 6876 -6877 0
-6870 6876 -4925 -6877 0
6870 -6876 -4925 -6877 0
4925 -6870 -6876 -6877 0
-6870 -6876 -4925 6877 0
4925 6870 -6876 6877 0
4925 -6870 6876 6877 0
6870 6876 -4925 6877 0
4992 5045 6877 -6878 0
6877 -4992 -5045 -6878 0
4992 -6877 -5045 -6878 0
5045 -6877 -4992 -6878 0
6878 -6877 -4992 -5045 0
4992 5045 -6877 6878 0
5045 6877 -4992 6878 0
4992 6877 -5045 6878 0
5092 6812 6878 -6879 0
-6812 6878 -5092 -6879 0
5092 -6812 -6878 -6879 0
6812 -6878 -5092 -6879 0
-6812 -6878 -5092 6879 0
5092 6812 -6878 6879 0
6812 6878 -5092 6879 0
5092 -6812 6878 6879 0
5125 5195 6879 -6880 0
6879 -5125 -5195 -6880 0
5125 -6879 -5195 -6880 0
5195 -6879 -5125 -6880 0
6880 -6879 -5125 -5195 0
5125 5195 -6879 6880 0
5195 6879 -5125 6880 0
5125 6879 -5195 6880 0
6617 6881 0
6526 6881 0
-6526 -6617 -6881 0
-5869 6882 0
-5869 -6881 6882 0
5869 5910 6882 0
5869 -6384 6882 0
5869 -5910 6384 -6882 0
5869 -5910 6384 6881 -6882 0
5245 6880 6882 -6883 0
-6880 6882 -5245 -6883 0
6880 -6882 -5245 -6883 0
5245 -6880 -6882 -6883 0
-6880 -6882 -5245 6883 0
5245 6880 -6882 6883 0
5245 -6880 6882 6883 0
6880 6882 -5245 6883 0
4227 4286 6571 -6884 0
6571 -4227 -4286 -6884 0
4227 -6571 -4286 -6884 0
4286 -6571 -4227 -6884 0
6884 -6571 -4227 -4286 0
4227 4286 -6571 6884 0
4286 6571 -4227 6884 0
4227 6571 -4286 6884 0
4336 4386 6884 -6885 0
6884 -4336 -4386 -6885 0
4336 -6884 -4386 -6885 0
4386 -6884 -4336 -6885 0
6885 -6884 -4336 -4386 0
4336 4386 -6884 6885 0
4386 6884 -4336 6885 0
4336 6884 -4386 6885 0
4436 4486 6885 -6886 0
6885 -4436 -4486 -6886 0
4436 -6885 -4486 -6886 0
4486 -6885 -4436 -6886 0
6886 -6885 -4436 -4486 0
4436 4486 -6885 6886 0
4486 6885 -4436 6886 0
4436 6885 -4486 6886 0
4536 4586 6886 -6887 0
6886 -4536 -4586 -6887 0
4536 -6886 -4586 -6887 0
4586 -6886 -4536 -6887 0
-6886 -4536 -4586 6887 0
4536 4586 -6886 6887 0
4586 6886 -4536 6887 0
4536 6886 -4586 6887 0
4636 4683 6887 -6888 0
6887 -4636 -4683 -6888 0
4636 -6887 -4683 -6888 0
4683 -6887 -4636 -6888 0
6888 -6887 -4636 -4683 0
4636 4683 -6887 6888 0
4683 6887 -4636 6888 0
4636 6887 -4683 6888 0
4733 4786 6888 -6889 0
6888 -4733 -4786 -6889 0
4733 -6888 -4786 -6889 0
4786 -6888 -4733 -6889 0
6889 -6888 -4733 -4786 0
4733 4786 -6888 6889 0
4786 6888 -4733 6889 0
4733 6888 -4786 6889 0
4836 6869 6889 -6890 0
6869 -6889 -4836 -6890 0
-6869 6889 -4836 -6890 0
4836 -6869 -6889 -6890 0
6890 -6869 -6889 -4836 0
4836 -6869 6889 6890 0
4836 6869 -6889 6890 0
6869 6889 -4836 6890 0
4875 4936 6890 -6891 0
6890 -4875 -4936 -6891 0
4875 -6890 -4936 -6891 0
4936 -6890 -4875 -6891 0
6891 -6890 -4875 -4936 0
4875 4936 -6890 6891 0
4936 6890 -4875 6891 0
4875 6890 -4936 6891 0
4986 5036 6891 -6892 0
6891 -4986 -5036 -6892 0
4986 -6891 -5036 -6892 0
5036 -6891 -4986 -6892 0
6892 -6891 -4986 -5036 0
4986 5036 -6891 6892 0
5036 6891 -4986 6892 0
4986 6891 -5036 6892 0
5086 5136 6892 -6893 0
6892 -5086 -5136 -6893 0
5086 -6892 -5136 -6893 0
5136 -6892 -5086 -6893 0
6893 -6892 -5086 -5136 0
5086 5136 -6892 6893 0
5136 6892 -5086 6893 0
5086 6892 -5136 6893 0
5186 5236 6893 -6894 0
6893 -5186 -5236 -6894 0
5186 -6893 -5236 -6894 0
5236 -6893 -5186 -6894 0
6894 -6893 -5186 -5236 0
5186 5236 -6893 6894 0
5236 6893 -5186 6894 0
5186 6893 -5236 6894 0
5869 6895 0
-6678 6895 0
-5869 6678 -6895 0
5869 6896 0
-6617 6896 0
6755 6896 0
-5869 6617 -6755 -6896 0
-5869 -6225 6617 -6851 6897 0
5869 -5910 6384 6897 0
6896 6897 0
-5869 -6755 6897 0
6097 6897 0
6895 6897 0
5583 6897 0
-5583 5869 -6097 -6384 -6895 -6896 -6897 0
-5583 5869 -6097 6225 -6384 -6895 -6896 -6897 0
-5583 5869 -6097 -6384 -6617 -6895 -6896 -6897 0
-5583 5869 -6097 -6384 6851 -6895 -6896 -6897 0
-5583 5869 5910 -6097 -6895 -6896 -6897 0
-5583 5869 5910 -6097 6225 -6895 -6896 -6897 0
-5583 5869 5910 -6097 -6617 -6895 -6896 -6897 0
-5583 5869 5910 -6097 6851 -6895 -6896 -6897 0
-5583 -5869 -6097 6225 6755 -6895 -6896 -6897 0
-5583 -5869 -6097 -6617 6755 -6895 -6896 -6897 0
-5583 -5869 -6097 6755 6851 -6895 -6896 -6897 0
-5583 5869 -6097 -6384 6755 -6895 -6896 -6897 0
-5583 -6097 6225 -6384 6755 -6895 -6896 -6897 0
-5583 -6097 -6384 -6617 6755 -6895 -6896 -6897 0
-5583 -6097 -6384 6755 6851 -6895 -6896 -6897 0
-5583 5869 5910 -6097 6755 -6895 -6896 -6897 0
-5583 5910 -6097 6225 6755 -6895 -6896 -6897 0
-5583 5910 -6097 -6617 6755 -6895 -6896 -6897 0
-5583 5910 -6097 6755 6851 -6895 -6896 -6897 0
4113 -4163 -6898 0
4163 -4113 -6898 0
6898 -4113 -4163 0
6898 4113 4163 0
4213 4263 6898 -6899 0
6898 -4213 -4263 -6899 0
4213 -6898 -4263 -6899 0
4263 -6898 -4213 -6899 0
6899 -6898 -4213 -4263 0
4213 4263 -6898 6899 0
4263 6898 -4213 6899 0
4213 6898 -4263 6899 0
4313 4363 6899 -6900 0
6899 -4313 -4363 -6900 0
4313 -6899 -4363 -6900 0
4363 -6899 -4313 -6900 0
6900 -6899 -4313 -4363 0
4313 4363 -6899 6900 0
4363 6899 -4313 6900 0
4313 6899 -4363 6900 0
4413 4463 6900 -6901 0
6900 -4413 -4463 -6901 0
4413 -6900 -4463 -6901 0
4463 -6900 -4413 -6901 0
6901 -6900 -4413 -4463 0
4413 4463 -6900 6901 0
4463 6900 -4413 6901 0
4413 6900 -4463 6901 0
4513 4563 6901 -6902 0
6901 -4513 -4563 -6902 0
4513 -6901 -4563 -6902 0
4563 -6901 -4513 -6902 0
6902 -6901 -4513 -4563 0
4513 4563 -6901 6902 0
4563 6901 -4513 6902 0
4513 6901 -4563 6902 0
4613 4663 6902 -6903 0
6902 -4613 -4663 -6903 0
4613 -6902 -4663 -6903 0
4663 -6902 -4613 -6903 0
6903 -6902 -4613 -4663 0
4613 4663 -6902 6903 0
4663 6902 -4613 6903 0
4613 6902 -4663 6903 0
6903 -4677 -6904 0
4677 -6903 -6904 0
6904 -6903 -4677 0
4677 6903 6904 0
4177 4233 6588 -6905 0
6588 -4177 -4233 -6905 0
4177 -6588 -4233 -6905 0
4233 -6588 -4177 -6905 0
6905 -6588 -4177 -4233 0
4177 4233 -6588 6905 0
4233 6588 -4177 6905 0
4177 6588 -4233 6905 0
4283 4333 6905 -6906 0
6905 -4283 -4333 -6906 0
4283 -6905 -4333 -6906 0
4333 -6905 -4283 -6906 0
6906 -6905 -4283 -4333 0
4283 4333 -6905 6906 0
4333 6905 -4283 6906 0
4283 6905 -4333 6906 0
4383 4433 6906 -6907 0
6906 -4383 -4433 -6907 0
4383 -6906 -4433 -6907 0
4433 -6906 -4383 -6907 0
6907 -6906 -4383 -4433 0
4383 4433 -6906 6907 0
4433 6906 -4383 6907 0
4383 6906 -4433 6907 0
4483 4533 6907 -6908 0
6907 -4483 -4533 -6908 0
4483 -6907 -4533 -6908 0
4533 -6907 -4483 -6908 0
6908 -6907 -4483 -4533 0
4483 4533 -6907 6908 0
4533 6907 -4483 6908 0
4483 6907 -4533 6908 0
4583 4633 6908 -6909 0
6908 -4583 -4633 -6909 0
4583 -6908 -4633 -6909 0
4633 -6908 -4583 -6909 0
6909 -6908 -4583 -4633 0
4583 4633 -6908 6909 0
4633 6908 -4583 6909 0
4583 6908 -4633 6909 0
4680 6904 6909 -6910 0
-6904 6909 -4680 -6910 0
4680 -6904 -6909 -6910 0
6904 -6909 -4680 -6910 0
-6904 -6909 -4680 6910 0
4680 6904 -6909 6910 0
6904 6909 -4680 6910 0
4680 -6904 6909 6910 0
4725 4783 6910 -6911 0
6910 -4725 -4783 -6911 0
4725 -6910 -4783 -6911 0
4783 -6910 -4725 -6911 0
6911 -6910 -4725 -4783 0
4725 4783 -6910 6911 0
4783 6910 -4725 6911 0
4725 6910 -4783 6911 0
4833 4883 6911 -6912 0
6911 -4833 -4883 -6912 0
4833 -6911 -4883 -6912 0
4883 -6911 -4833 -6912 0
6912 -6911 -4833 -4883 0
4833 4883 -6911 6912 0
4883 6911 -4833 6912 0
4833 6911 -4883 6912 0
4933 4983 6912 -6913 0
6912 -4933 -4983 -6913 0
4933 -6912 -4983 -6913 0
4983 -6912 -4933 -6913 0
6913 -6912 -4933 -4983 0
4933 4983 -6912 6913 0
4983 6912 -4933 6913 0
4933 6912 -4983 6913 0
5033 5083 6913 -6914 0
6913 -5033 -5083 -6914 0
5033 -6913 -5083 -6914 0
5083 -6913 -5033 -6914 0
6914 -6913 -5033 -5083 0
5033 5083 -6913 6914 0
5083 6913 -5033 6914 0
5033 6913 -5083 6914 0
5133 5183 6914 -6915 0
6914 -5133 -5183 -6915 0
5133 -6914 -5183 -6915 0
5183 -6914 -5133 -6915 0
6915 -6914 -5133 -5183 0
5133 5183 -6914 6915 0
5183 6914 -5133 6915 0
5133 6914 -5183 6915 0
6617 6916 0
-6678 6916 0
-6617 6678 -6916 0
5233 6915 6916 -6917 0
-6915 6916 -5233 -6917 0
6915 -6916 -5233 -6917 0
5233 -6915 -6916 -6917 0
-6915 -6916 -5233 6917 0
5233 6915 -6916 6917 0
5233 -6915 6916 6917 0
6915 6916 -5233 6917 0
6894 6897 6917 -6918 0
-6894 -6897 6917 -6918 0
-6894 6897 -6917 -6918 0
6894 -6897 -6917 -6918 0
-6894 -6897 -6917 6918 0
6894 6897 -6917 6918 0
6894 -6897 6917 6918 0
-6894 6897 6917 6918 0
6904 -4727 -6919 0
4727 -6904 -6919 0
6919 -6904 -4727 0
4727 6904 6919 0
6919 -4777 -6920 0
4777 -6919 -6920 0
6920 -6919 -4777 0
4777 6919 6920 0
4427 4492 6697 -6921 0
6697 -4427 -4492 -6921 0
4427 -6697 -4492 -6921 0
4492 -6697 -4427 -6921 0
6921 -6697 -4427 -4492 0
4427 4492 -6697 6921 0
4492 6697 -4427 6921 0
4427 6697 -4492 6921 0
4542 4592 6921 -6922 0
6921 -4542 -4592 -6922 0
4542 -6921 -4592 -6922 0
4592 -6921 -4542 -6922 0
-6921 -4542 -4592 6922 0
4542 4592 -6921 6922 0
4592 6921 -4542 6922 0
4542 6921 -4592 6922 0
4642 4689 6922 -6923 0
6922 -4642 -4689 -6923 0
4642 -6922 -4689 -6923 0
4689 -6922 -4642 -6923 0
6923 -6922 -4642 -4689 0
4642 4689 -6922 6923 0
4689 6922 -4642 6923 0
4642 6922 -4689 6923 0
4739 4789 6923 -6924 0
6923 -4739 -4789 -6924 0
4739 -6923 -4789 -6924 0
4789 -6923 -4739 -6924 0
6924 -6923 -4739 -4789 0
4739 4789 -6923 6924 0
4789 6923 -4739 6924 0
4739 6923 -4789 6924 0
4825 6920 6924 -6925 0
-6920 6924 -4825 -6925 0
6920 -6924 -4825 -6925 0
4825 -6920 -6924 -6925 0
-6920 -6924 -4825 6925 0
4825 6920 -6924 6925 0
4825 -6920 6924 6925 0
6920 6924 -4825 6925 0
4889 4942 6925 -6926 0
6925 -4889 -4942 -6926 0
4889 -6925 -4942 -6926 0
4942 -6925 -4889 -6926 0
6926 -6925 -4889 -4942 0
4889 4942 -6925 6926 0
4942 6925 -4889 6926 0
4889 6925 -4942 6926 0
4989 5042 6926 -6927 0
6926 -4989 -5042 -6927 0
4989 -6926 -5042 -6927 0
5042 -6926 -4989 -6927 0
6927 -6926 -4989 -5042 0
4989 5042 -6926 6927 0
5042 6926 -4989 6927 0
4989 6926 -5042 6927 0
5075 6811 6927 -6928 0
-6811 6927 -5075 -6928 0
6811 -6927 -5075 -6928 0
5075 -6811 -6927 -6928 0
-6811 -6927 -5075 6928 0
5075 6811 -6927 6928 0
5075 -6811 6927 6928 0
6811 6927 -5075 6928 0
5142 5192 6928 -6929 0
6928 -5142 -5192 -6929 0
5142 -6928 -5192 -6929 0
5192 -6928 -5142 -6929 0
6929 -6928 -5142 -5192 0
5142 5192 -6928 6929 0
5192 6928 -5142 6929 0
5142 6928 -5192 6929 0
6617 6930 0
6755 6930 0
-6617 -6755 -6930 0
-6225 -6851 -6930 6931 0
6617 -6755 6931 0
6225 -6617 -6931 0
6851 -6617 -6931 0
6930 -6617 -6931 0
6225 6755 -6931 0
6755 6851 -6931 0
6755 6930 -6931 0
5242 6929 6931 -6932 0
-6929 6931 -5242 -6932 0
6929 -6931 -5242 -6932 0
5242 -6929 -6931 -6932 0
-6929 -6931 -5242 6932 0
5242 6929 -6931 6932 0
5242 -6929 6931 6932 0
6929 6931 -5242 6932 0
6883 6918 6932 -6933 0
-6883 -6918 6932 -6933 0
-6883 6918 -6932 -6933 0
6883 -6918 -6932 -6933 0
-6883 -6918 -6932 6933 0
6883 6918 -6932 6933 0
6883 -6918 6932 6933 0
-6883 6918 6932 6933 0
-6463 6647 6934 0
-6526 6647 6934 0
6526 -6647 -6934 0
6463 6526 -6934 0
-6647 -6934 0
6463 -6647 -6934 0
6634 -4974 -6935 0
4974 -6634 -6935 0
6935 -6634 -4974 0
4974 6634 6935 0
5038 5088 6935 -6936 0
6935 -5038 -5088 -6936 0
5038 -6935 -5088 -6936 0
5088 -6935 -5038 -6936 0
6936 -6935 -5038 -5088 0
5038 5088 -6935 6936 0
5088 6935 -5038 6936 0
5038 6935 -5088 6936 0
5138 5188 6936 -6937 0
6936 -5138 -5188 -6937 0
5138 -6936 -5188 -6937 0
5188 -6936 -5138 -6937 0
6937 -6936 -5138 -5188 0
5138 5188 -6936 6937 0
5188 6936 -5138 6937 0
5138 6936 -5188 6937 0
5238 6934 6937 -6938 0
-6934 6937 -5238 -6938 0
5238 -6934 -6937 -6938 0
6934 -6937 -5238 -6938 0
-6934 -6937 -5238 6938 0
5238 6934 -6937 6938 0
6934 6937 -5238 6938 0
5238 -6934 6937 6938 0
5024 5094 6632 -6939 0
6632 -5024 -5094 -6939 0
5024 -6632 -5094 -6939 0
5094 -6632 -5024 -6939 0
6939 -6632 -5024 -5094 0
5024 5094 -6632 6939 0
5094 6632 -5024 6939 0
5024 6632 -5094 6939 0
5144 5197 6939 -6940 0
6939 -5144 -5197 -6940 0
5144 -6939 -5197 -6940 0
5197 -6939 -5144 -6940 0
6940 -6939 -5144 -5197 0
5144 5197 -6939 6940 0
5197 6939 -5144 6940 0
5144 6939 -5197 6940 0
-6647 6941 0
-6526 6941 0
-6463 6941 0
6463 6526 6647 -6941 0
5247 6940 6941 -6942 0
-6940 6941 -5247 -6942 0
6940 -6941 -5247 -6942 0
5247 -6940 -6941 -6942 0
-6940 -6941 -5247 6942 0
5247 6940 -6941 6942 0
5247 -6940 6941 6942 0
6940 6941 -5247 6942 0
-6938 6942 -6943 0
6938 -6942 -6943 0
-6938 -6942 6943 0
6938 6942 6943 0
4724 4782 6456 -6944 0
6456 -4724 -4782 -6944 0
4724 -6456 -4782 -6944 0
4782 -6456 -4724 -6944 0
6944 -6456 -4724 -4782 0
4724 4782 -6456 6944 0
4782 6456 -4724 6944 0
4724 6456 -4782 6944 0
4832 4882 6944 -6945 0
6944 -4832 -4882 -6945 0
4832 -6944 -4882 -6945 0
4882 -6944 -4832 -6945 0
6945 -6944 -4832 -4882 0
4832 4882 -6944 6945 0
4882 6944 -4832 6945 0
4832 6944 -4882 6945 0
4932 4982 6945 -6946 0
6945 -4932 -4982 -6946 0
4932 -6945 -4982 -6946 0
4982 -6945 -4932 -6946 0
6946 -6945 -4932 -4982 0
4932 4982 -6945 6946 0
4982 6945 -4932 6946 0
4932 6945 -4982 6946 0
5032 5082 6946 -6947 0
6946 -5032 -5082 -6947 0
5032 -6946 -5082 -6947 0
5082 -6946 -5032 -6947 0
6947 -6946 -5032 -5082 0
5032 5082 -6946 6947 0
5082 6946 -5032 6947 0
5032 6946 -5082 6947 0
5132 5182 6947 -6948 0
6947 -5132 -5182 -6948 0
5132 -6947 -5182 -6948 0
5182 -6947 -5132 -6948 0
6948 -6947 -5132 -5182 0
5132 5182 -6947 6948 0
5182 6947 -5132 6948 0
5132 6947 -5182 6948 0
-6678 6949 0
6617 6949 0
6463 6949 0
-6463 -6617 6678 -6949 0
5232 6948 6949 -6950 0
-6948 6949 -5232 -6950 0
6948 -6949 -5232 -6950 0
5232 -6948 -6949 -6950 0
-6948 -6949 -5232 6950 0
5232 6948 -6949 6950 0
5232 -6948 6949 6950 0
6948 6949 -5232 6950 0
4674 4729 6434 -6951 0
6434 -4674 -4729 -6951 0
4674 -6434 -4729 -6951 0
4729 -6434 -4674 -6951 0
6951 -6434 -4674 -4729 0
4674 4729 -6434 6951 0
4729 6434 -4674 6951 0
4674 6434 -4729 6951 0
4779 4829 6951 -6952 0
6951 -4779 -4829 -6952 0
4779 -6951 -4829 -6952 0
4829 -6951 -4779 -6952 0
6952 -6951 -4779 -4829 0
4779 4829 -6951 6952 0
4829 6951 -4779 6952 0
4779 6951 -4829 6952 0
4879 4929 6952 -6953 0
6952 -4879 -4929 -6953 0
4879 -6952 -4929 -6953 0
4929 -6952 -4879 -6953 0
6953 -6952 -4879 -4929 0
4879 4929 -6952 6953 0
4929 6952 -4879 6953 0
4879 6952 -4929 6953 0
4979 5029 6953 -6954 0
6953 -4979 -5029 -6954 0
4979 -6953 -5029 -6954 0
5029 -6953 -4979 -6954 0
6954 -6953 -4979 -5029 0
4979 5029 -6953 6954 0
5029 6953 -4979 6954 0
4979 6953 -5029 6954 0
5079 5129 6954 -6955 0
6954 -5079 -5129 -6955 0
5079 -6954 -5129 -6955 0
5129 -6954 -5079 -6955 0
6955 -6954 -5079 -5129 0
5079 5129 -6954 6955 0
5129 6954 -5079 6955 0
5079 6954 -5129 6955 0
5179 5229 6955 -6956 0
6955 -5179 -5229 -6956 0
5179 -6955 -5229 -6956 0
5229 -6955 -5179 -6956 0
6956 -6955 -5179 -5229 0
5179 5229 -6955 6956 0
5229 6955 -5179 6956 0
5179 6955 -5229 6956 0
-6617 6957 0
6647 6957 0
-6526 6957 0
6463 6957 0
-6463 6526 6617 -6647 -6957 0
6950 6956 6957 -6958 0
-6950 -6956 6957 -6958 0
-6950 6956 -6957 -6958 0
6950 -6956 -6957 -6958 0
-6950 -6956 -6957 6958 0
6950 6956 -6957 6958 0
6950 -6956 6957 6958 0
-6950 6956 6957 6958 0
6680 6938 6958 -6959 0
6680 -6938 -6958 -6959 0
-6680 -6938 6958 -6959 0
-6680 6938 -6958 -6959 0
-6680 -6938 -6958 6959 0
-6680 6938 6958 6959 0
6680 6938 -6958 6959 0
6680 -6938 6958 6959 0
4119 -4169 -6960 0
4169 -4119 -6960 0
6960 -4119 -4169 0
6960 4119 4169 0
4219 4269 6960 -6961 0
6960 -4219 -4269 -6961 0
4219 -6960 -4269 -6961 0
4269 -6960 -4219 -6961 0
6961 -6960 -4219 -4269 0
4219 4269 -6960 6961 0
4269 6960 -4219 6961 0
4219 6960 -4269 6961 0
4319 4369 6961 -6962 0
6961 -4319 -4369 -6962 0
4319 -6961 -4369 -6962 0
4369 -6961 -4319 -6962 0
6962 -6961 -4319 -4369 0
4319 4369 -6961 6962 0
4369 6961 -4319 6962 0
4319 6961 -4369 6962 0
4419 4469 6962 -6963 0
6962 -4419 -4469 -6963 0
4419 -6962 -4469 -6963 0
4469 -6962 -4419 -6963 0
6963 -6962 -4419 -4469 0
4419 4469 -6962 6963 0
4469 6962 -4419 6963 0
4419 6962 -4469 6963 0
4519 4569 6963 -6964 0
6963 -4519 -4569 -6964 0
4519 -6963 -4569 -6964 0
4569 -6963 -4519 -6964 0
6964 -6963 -4519 -4569 0
4519 4569 -6963 6964 0
4569 6963 -4519 6964 0
4519 6963 -4569 6964 0
4619 4669 6964 -6965 0
6964 -4619 -4669 -6965 0
4619 -6964 -4669 -6965 0
4669 -6964 -4619 -6965 0
6965 -6964 -4619 -4669 0
4619 4669 -6964 6965 0
4669 6964 -4619 6965 0
4619 6964 -4669 6965 0
4719 4769 6965 -6966 0
6965 -4719 -4769 -6966 0
4719 -6965 -4769 -6966 0
4769 -6965 -4719 -6966 0
6966 -6965 -4719 -4769 0
4719 4769 -6965 6966 0
4769 6965 -4719 6966 0
4719 6965 -4769 6966 0
4819 4869 6966 -6967 0
6966 -4819 -4869 -6967 0
4819 -6966 -4869 -6967 0
4869 -6966 -4819 -6967 0
6967 -6966 -4819 -4869 0
4819 4869 -6966 6967 0
4869 6966 -4819 6967 0
4819 6966 -4869 6967 0
4919 4969 6967 -6968 0
6967 -4919 -4969 -6968 0
4919 -6967 -4969 -6968 0
4969 -6967 -4919 -6968 0
6968 -6967 -4919 -4969 0
4919 4969 -6967 6968 0
4969 6967 -4919 6968 0
4919 6967 -4969 6968 0
6968 -4977 -6969 0
4977 -6968 -6969 0
6969 -6968 -4977 0
4977 6968 6969 0
6746 -4477 -6970 0
4477 -6746 -6970 0
6970 -6746 -4477 0
4477 6746 6970 0
4548 4598 6970 -6971 0
6970 -4548 -4598 -6971 0
4548 -6970 -4598 -6971 0
4598 -6970 -4548 -6971 0
-6970 -4548 -4598 6971 0
4548 4598 -6970 6971 0
4598 6970 -4548 6971 0
4548 6970 -4598 6971 0
4648 4695 6971 -6972 0
6971 -4648 -4695 -6972 0
4648 -6971 -4695 -6972 0
4695 -6971 -4648 -6972 0
6972 -6971 -4648 -4695 0
4648 4695 -6971 6972 0
4695 6971 -4648 6972 0
4648 6971 -4695 6972 0
4745 4795 6972 -6973 0
6972 -4745 -4795 -6973 0
4745 -6972 -4795 -6973 0
4795 -6972 -4745 -6973 0
6973 -6972 -4745 -4795 0
4745 4795 -6972 6973 0
4795 6972 -4745 6973 0
4745 6972 -4795 6973 0
4845 4895 6973 -6974 0
6973 -4845 -4895 -6974 0
4845 -6973 -4895 -6974 0
4895 -6973 -4845 -6974 0
6974 -6973 -4845 -4895 0
4845 4895 -6973 6974 0
4895 6973 -4845 6974 0
4845 6973 -4895 6974 0
4945 4995 6974 -6975 0
6974 -4945 -4995 -6975 0
4945 -6974 -4995 -6975 0
4995 -6974 -4945 -6975 0
6975 -6974 -4945 -4995 0
4945 4995 -6974 6975 0
4995 6974 -4945 6975 0
4945 6974 -4995 6975 0
5025 6969 6975 -6976 0
-6969 6975 -5025 -6976 0
6969 -6975 -5025 -6976 0
5025 -6969 -6975 -6976 0
-6969 -6975 -5025 6976 0
5025 6969 -6975 6976 0
5025 -6969 6975 6976 0
6969 6975 -5025 6976 0
5095 5145 6976 -6977 0
6976 -5095 -5145 -6977 0
5095 -6976 -5145 -6977 0
5145 -6976 -5095 -6977 0
6977 -6976 -5095 -5145 0
5095 5145 -6976 6977 0
5145 6976 -5095 6977 0
5095 6976 -5145 6977 0
5198 5248 6977 -6978 0
6977 -5198 -5248 -6978 0
5198 -6977 -5248 -6978 0
5248 -6977 -5198 -6978 0
6978 -6977 -5198 -5248 0
5198 5248 -6977 6978 0
5248 6977 -5198 6978 0
5198 6977 -5248 6978 0
6725 -4377 -6979 0
4377 -6725 -6979 0
6979 -6725 -4377 0
4377 6725 6979 0
4439 4489 6979 -6980 0
6979 -4439 -4489 -6980 0
4439 -6979 -4489 -6980 0
4489 -6979 -4439 -6980 0
6980 -6979 -4439 -4489 0
4439 4489 -6979 6980 0
4489 6979 -4439 6980 0
4439 6979 -4489 6980 0
4539 4589 6980 -6981 0
6980 -4539 -4589 -6981 0
4539 -6980 -4589 -6981 0
4589 -6980 -4539 -6981 0
-6980 -4539 -4589 6981 0
4539 4589 -6980 6981 0
4589 6980 -4539 6981 0
4539 6980 -4589 6981 0
4639 4686 6981 -6982 0
6981 -4639 -4686 -6982 0
4639 -6981 -4686 -6982 0
4686 -6981 -4639 -6982 0
6982 -6981 -4639 -4686 0
4639 4686 -6981 6982 0
4686 6981 -4639 6982 0
4639 6981 -4686 6982 0
4736 6919 6982 -6983 0
6919 -6982 -4736 -6983 0
-6919 6982 -4736 -6983 0
4736 -6919 -6982 -6983 0
6983 -6919 -6982 -4736 0
4736 -6919 6982 6983 0
4736 6919 -6982 6983 0
6919 6982 -4736 6983 0
4775 4839 6983 -6984 0
6983 -4775 -4839 -6984 0
4775 -6983 -4839 -6984 0
4839 -6983 -4775 -6984 0
6984 -6983 -4775 -4839 0
4775 4839 -6983 6984 0
4839 6983 -4775 6984 0
4775 6983 -4839 6984 0
4886 4939 6984 -6985 0
6984 -4886 -4939 -6985 0
4886 -6984 -4939 -6985 0
4939 -6984 -4886 -6985 0
6985 -6984 -4886 -4939 0
4886 4939 -6984 6985 0
4939 6984 -4886 6985 0
4886 6984 -4939 6985 0
4975 6968 6985 -6986 0
6968 -6985 -4975 -6986 0
-6968 6985 -4975 -6986 0
4975 -6968 -6985 -6986 0
6986 -6968 -6985 -4975 0
4975 -6968 6985 6986 0
4975 6968 -6985 6986 0
6968 6985 -4975 6986 0
5039 5089 6986 -6987 0
6986 -5039 -5089 -6987 0
5039 -6986 -5089 -6987 0
5089 -6986 -5039 -6987 0
6987 -6986 -5039 -5089 0
5039 5089 -6986 6987 0
5089 6986 -5039 6987 0
5039 6986 -5089 6987 0
5139 5189 6987 -6988 0
6987 -5139 -5189 -6988 0
5139 -6987 -5189 -6988 0
5189 -6987 -5139 -6988 0
6988 -6987 -5139 -5189 0
5139 5189 -6987 6988 0
5189 6987 -5139 6988 0
5139 6987 -5189 6988 0
-6617 6989 0
6851 6989 0
6755 6989 0
6617 -6755 -6851 -6989 0
5239 6988 6989 -6990 0
-6988 6989 -5239 -6990 0
6988 -6989 -5239 -6990 0
5239 -6988 -6989 -6990 0
-6988 -6989 -5239 6990 0
5239 6988 -6989 6990 0
5239 -6988 6989 6990 0
6988 6989 -5239 6990 0
-6932 6990 -6991 0
6932 -6990 -6991 0
-6932 -6990 6991 0
6932 6990 6991 0
6860 6978 6991 -6992 0
-6860 -6978 6991 -6992 0
-6860 6978 -6991 -6992 0
6860 -6978 -6991 -6992 0
-6860 -6978 -6991 6992 0
6860 6978 -6991 6992 0
6860 -6978 6991 6992 0
-6860 6978 6991 6992 0
4077 4130 6665 -6993 0
6665 -4077 -4130 -6993 0
4077 -6665 -4130 -6993 0
4130 -6665 -4077 -6993 0
6993 -6665 -4077 -4130 0
4077 4130 -6665 6993 0
4130 6665 -4077 6993 0
4077 6665 -4130 6993 0
4180 4230 6993 -6994 0
6993 -4180 -4230 -6994 0
4180 -6993 -4230 -6994 0
4230 -6993 -4180 -6994 0
6994 -6993 -4180 -4230 0
4180 4230 -6993 6994 0
4230 6993 -4180 6994 0
4180 6993 -4230 6994 0
4280 4330 6994 -6995 0
6994 -4280 -4330 -6995 0
4280 -6994 -4330 -6995 0
4330 -6994 -4280 -6995 0
6995 -6994 -4280 -4330 0
4280 4330 -6994 6995 0
4330 6994 -4280 6995 0
4280 6994 -4330 6995 0
4380 4430 6995 -6996 0
6995 -4380 -4430 -6996 0
4380 -6995 -4430 -6996 0
4430 -6995 -4380 -6996 0
6996 -6995 -4380 -4430 0
4380 4430 -6995 6996 0
4430 6995 -4380 6996 0
4380 6995 -4430 6996 0
4480 4530 6996 -6997 0
6996 -4480 -4530 -6997 0
4480 -6996 -4530 -6997 0
4530 -6996 -4480 -6997 0
6997 -6996 -4480 -4530 0
4480 4530 -6996 6997 0
4530 6996 -4480 6997 0
4480 6996 -4530 6997 0
4580 4630 6997 -6998 0
6997 -4580 -4630 -6998 0
4580 -6997 -4630 -6998 0
4630 -6997 -4580 -6998 0
6998 -6997 -4580 -4630 0
4580 4630 -6997 6998 0
4630 6997 -4580 6998 0
4580 6997 -4630 6998 0
4675 6903 6998 -6999 0
6903 -6998 -4675 -6999 0
-6903 6998 -4675 -6999 0
4675 -6903 -6998 -6999 0
6999 -6903 -6998 -4675 0
4675 -6903 6998 6999 0
4675 6903 -6998 6999 0
6903 6998 -4675 6999 0
4730 4780 6999 -7000 0
6999 -4730 -4780 -7000 0
4730 -6999 -4780 -7000 0
4780 -6999 -4730 -7000 0
7000 -6999 -4730 -4780 0
4730 4780 -6999 7000 0
4780 6999 -4730 7000 0
4730 6999 -4780 7000 0
4830 4880 7000 -7001 0
7000 -4830 -4880 -7001 0
4830 -7000 -4880 -7001 0
4880 -7000 -4830 -7001 0
7001 -7000 -4830 -4880 0
4830 4880 -7000 7001 0
4880 7000 -4830 7001 0
4830 7000 -4880 7001 0
4930 4980 7001 -7002 0
7001 -4930 -4980 -7002 0
4930 -7001 -4980 -7002 0
4980 -7001 -4930 -7002 0
7002 -7001 -4930 -4980 0
4930 4980 -7001 7002 0
4980 7001 -4930 7002 0
4930 7001 -4980 7002 0
5030 5080 7002 -7003 0
7002 -5030 -5080 -7003 0
5030 -7002 -5080 -7003 0
5080 -7002 -5030 -7003 0
7003 -7002 -5030 -5080 0
5030 5080 -7002 7003 0
5080 7002 -5030 7003 0
5030 7002 -5080 7003 0
5130 5180 7003 -7004 0
7003 -5130 -5180 -7004 0
5130 -7003 -5180 -7004 0
5180 -7003 -5130 -7004 0
7004 -7003 -5130 -5180 0
5130 5180 -7003 7004 0
5180 7003 -5130 7004 0
5130 7003 -5180 7004 0
-6678 7005 0
-6617 7005 0
6617 6678 -7005 0
5230 7004 7005 -7006 0
-7004 7005 -5230 -7006 0
7004 -7005 -5230 -7006 0
5230 -7004 -7005 -7006 0
-7004 -7005 -5230 7006 0
5230 7004 -7005 7006 0
5230 -7004 7005 7006 0
7004 7005 -5230 7006 0
-6917 7006 -7007 0
6917 -7006 -7007 0
-6917 -7006 7007 0
6917 7006 7007 0
6791 6793 6942 -7008 0
-6791 6793 -6942 -7008 0
-6791 -6793 6942 -7008 0
6791 -6793 -6942 -7008 0
-6791 -6793 -6942 7008 0
6791 -6793 6942 7008 0
6791 6793 -6942 7008 0
-6791 6793 6942 7008 0
6978 6990 7006 -7009 0
-6978 -6990 7006 -7009 0
-6978 6990 -7006 -7009 0
6978 -6990 -7006 -7009 0
-6978 -6990 -7006 7009 0
6978 6990 -7006 7009 0
6978 -6990 7006 7009 0
-6978 6990 7006 7009 0
-6794 -6801 -6861 -6933 6943 6959 6992 7007 -7008 7009 0
14 15 16 17 -13 0
13 -14 0
13 -15 0
13 -16 0
13 -17 0
19 20 -18 0
18 -19 0
18 -20 0
22 23 -21 0
21 -22 0
21 -23 0
25 26 -24 0
24 -25 0
24 -26 0
28 29 -27 0
27 -28 0
27 -29 0
31 32 -30 0
30 -31 0
30 -32 0
34 35 -33 0
33 -34 0
33 -35 0
37 38 -36 0
36 -37 0
36 -38 0
40 41 -39 0
39 -40 0
39 -41 0
43 44 -42 0
42 -43 0
42 -44 0
46 47 -45 0
45 -46 0
45 -47 0
49 50 -48 0
48 -49 0
48 -50 0
52 53 -51 0
51 -52 0
51 -53 0
55 56 -54 0
54 -55 0
54 -56 0
58 59 -57 0
57 -58 0
57 -59 0
61 62 -60 0
60 -61 0
60 -62 0
64 65 -63 0
63 -64 0
63 -65 0
67 68 -66 0
66 -67 0
66 -68 0
70 71 -69 0
69 -70 0
69 -71 0
73 74 -72 0
72 -73 0
72 -74 0
76 77 78 79 -75 0
75 -76 0
75 -77 0
75 -78 0
75 -79 0
81 82 -80 0
80 -81 0
80 -82 0
84 85 -83 0
83 -84 0
83 -85 0
87 88 -86 0
86 -87 0
86 -88 0
90 91 -89 0
89 -90 0
89 -91 0
93 94 -92 0
92 -93 0
92 -94 0
96 97 -95 0
95 -96 0
95 -97 0
99 100 -98 0
98 -99 0
98 -100 0
102 103 -101 0
101 -102 0
101 -103 0
105 106 -104 0
104 -105 0
104 -106 0
108 109 -107 0
107 -108 0
107 -109 0
111 112 -110 0
110 -111 0
110 -112 0
114 115 -113 0
113 -114 0
113 -115 0
117 118 -116 0
116 -117 0
116 -118 0
120 121 -119 0
119 -120 0
119 -121 0
123 124 -122 0
122 -123 0
122 -124 0
126 127 -125 0
125 -126 0
125 -127 0
129 130 -128 0
128 -129 0
128 -130 0
132 133 -131 0
131 -132 0
131 -133 0
135 136 -134 0
134 -135 0
134 -136 0
138 139 140 141 -137 0
137 -138 0
137 -139 0
137 -140 0
137 -141 0
143 144 -142 0
142 -143 0
142 -144 0
146 147 -145 0
145 -146 0
145 -147 0
149 150 -148 0
148 -149 0
148 -150 0
152 153 -151 0
151 -152 0
151 -153 0
155 156 -154 0
154 -155 0
154 -156 0
158 159 -157 0
157 -158 0
157 -159 0
161 162 -160 0
160 -161 0
160 -162 0
164 165 -163 0
163 -164 0
163 -165 0
167 168 -166 0
166 -167 0
166 -168 0
170 171 -169 0
169 -170 0
169 -171 0
173 174 -172 0
172 -173 0
172 -174 0
176 177 -175 0
175 -176 0
175 -177 0
179 180 -178 0
178 -179 0
178 -180 0
182 183 -181 0
181 -182 0
181 -183 0
185 186 -184 0
184 -185 0
184 -186 0
188 189 -187 0
187 -188 0
187 -189 0
191 192 -190 0
190 -191 0
190 -192 0
194 195 -193 0
193 -194 0
193 -195 0
197 198 -196 0
196 -197 0
196 -198 0
200 201 202 203 -199 0
199 -200 0
199 -201 0
199 -202 0
199 -203 0
205 206 -204 0
204 -205 0
204 -206 0
208 209 -207 0
207 -208 0
207 -209 0
211 212 -210 0
210 -211 0
210 -212 0
214 215 -213 0
213 -214 0
213 -215 0
217 218 -216 0
216 -217 0
216 -218 0
220 221 -219 0
219 -220 0
219 -221 0
223 224 -222 0
222 -223 0
222 -224 0
226 227 -225 0
225 -226 0
225 -227 0
229 230 -228 0
228 -229 0
228 -230 0
232 233 -231 0
231 -232 0
231 -233 0
235 236 -234 0
234 -235 0
234 -236 0
238 239 -237 0
237 -238 0
237 -239 0
241 242 -240 0
240 -241 0
240 -242 0
244 245 -243 0
243 -244 0
243 -245 0
247 248 -246 0
246 -247 0
246 -248 0
250 251 -249 0
249 -250 0
249 -251 0
253 254 -252 0
252 -253 0
252 -254 0
256 257 -255 0
255 -256 0
255 -257 0
259 260 -258 0
258 -259 0
258 -260 0
262 263 264 265 -261 0
261 -262 0
261 -263 0
261 -264 0
261 -265 0
267 268 -266 0
266 -267 0
266 -268 0
270 271 -269 0
269 -270 0
269 -271 0
273 274 -272 0
272 -273 0
272 -274 0
276 277 -275 0
275 -276 0
275 -277 0
279 280 -278 0
278 -279 0
278 -280 0
282 283 -281 0
281 -282 0
281 -283 0
285 286 -284 0
284 -285 0
284 -286 0
288 289 -287 0
287 -288 0
287 -289 0
291 292 -290 0
290 -291 0
290 -292 0
294 295 -293 0
293 -294 0
293 -295 0
297 298 -296 0
296 -297 0
296 -298 0
300 301 -299 0
299 -300 0
299 -301 0
303 304 -302 0
302 -303 0
302 -304 0
306 307 -305 0
305 -306 0
305 -307 0
309 310 -308 0
308 -309 0
308 -310 0
312 313 -311 0
311 -312 0
311 -313 0
315 316 -314 0
314 -315 0
314 -316 0
318 319 -317 0
317 -318 0
317 -319 0
321 322 -320 0
320 -321 0
320 -322 0
324 325 326 327 -323 0
323 -324 0
323 -325 0
323 -326 0
323 -327 0
329 330 -328 0
328 -329 0
328 -330 0
332 333 -331 0
331 -332 0
331 -333 0
335 336 -334 0
334 -335 0
334 -336 0
338 339 -337 0
337 -338 0
337 -339 0
341 342 -340 0
340 -341 0
340 -342 0
344 345 -343 0
343 -344 0
343 -345 0
347 348 -346 0
346 -347 0
346 -348 0
350 351 -349 0
349 -350 0
349 -351 0
353 354 -352 0
352 -353 0
352 -354 0
356 357 -355 0
355 -356 0
355 -357 0
359 360 -358 0
358 -359 0
358 -360 0
362 363 -361 0
361 -362 0
361 -363 0
365 366 -364 0
364 -365 0
364 -366 0
368 369 -367 0
367 -368 0
367 -369 0
371 372 -370 0
370 -371 0
370 -372 0
374 375 -373 0
373 -374 0
373 -375 0
377 378 -376 0
376 -377 0
376 -378 0
380 381 -379 0
379 -380 0
379 -381 0
383 384 -382 0
382 -383 0
382 -384 0
386 387 388 389 -385 0
385 -386 0
385 -387 0
385 -388 0
385 -389 0
391 392 -390 0
390 -391 0
390 -392 0
394 395 -393 0
393 -394 0
393 -395 0
397 398 -396 0
396 -397 0
396 -398 0
400 401 -399 0
399 -400 0
399 -401 0
403 404 -402 0
402 -403 0
402 -404 0
406 407 -405 0
405 -406 0
405 -407 0
409 410 -408 0
408 -409 0
408 -410 0
412 413 -411 0
411 -412 0
411 -413 0
415 416 -414 0
414 -415 0
414 -416 0
418 419 -417 0
417 -418 0
417 -419 0
421 422 -420 0
420 -421 0
420 -422 0
424 425 -423 0
423 -424 0
423 -425 0
427 428 -426 0
426 -427 0
426 -428 0
430 431 -429 0
429 -430 0
429 -431 0
433 434 -432 0
432 -433 0
432 -434 0
436 437 -435 0
435 -436 0
435 -437 0
439 440 -438 0
438 -439 0
438 -440 0
442 443 -441 0
441 -442 0
441 -443 0
445 446 -444 0
444 -445 0
444 -446 0
448 449 450 451 -447 0
447 -448 0
447 -449 0
447 -450 0
447 -451 0
453 454 -452 0
452 -453 0
452 -454 0
456 457 -455 0
455 -456 0
455 -457 0
459 460 -458 0
458 -459 0
458 -460 0
462 463 -461 0
461 -462 0
461 -463 0
465 466 -464 0
464 -465 0
464 -466 0
468 469 -467 0
467 -468 0
467 -469 0
471 472 -470 0
470 -471 0
470 -472 0
474 475 -473 0
473 -474 0
473 -475 0
477 478 -476 0
476 -477 0
476 -478 0
480 481 -479 0
479 -480 0
479 -481 0
483 484 -482 0
482 -483 0
482 -484 0
486 487 -485 0
485 -486 0
485 -487 0
489 490 -488 0
488 -489 0
488 -490 0
492 493 -491 0
491 -492 0
491 -493 0
495 496 -494 0
494 -495 0
494 -496 0
498 499 -497 0
497 -498 0
497 -499 0
501 502 -500 0
500 -501 0
500 -502 0
504 505 -503 0
503 -504 0
503 -505 0
507 508 -506 0
506 -507 0
506 -508 0
510 511 512 513 -509 0
509 -510 0
509 -511 0
509 -512 0
509 -513 0
515 516 -514 0
514 -515 0
514 -516 0
518 519 -517 0
517 -518 0
517 -519 0
521 522 -520 0
520 -521 0
520 -522 0
524 525 -523 0
523 -524 0
523 -525 0
527 528 -526 0
526 -527 0
526 -528 0
530 531 -529 0
529 -530 0
529 -531 0
533 534 -532 0
532 -533 0
532 -534 0
536 537 -535 0
535 -536 0
535 -537 0
539 540 -538 0
538 -539 0
538 -540 0
542 543 -541 0
541 -542 0
541 -543 0
545 546 -544 0
544 -545 0
544 -546 0
548 549 -547 0
547 -548 0
547 -549 0
551 552 -550 0
550 -551 0
550 -552 0
554 555 -553 0
553 -554 0
553 -555 0
557 558 -556 0
556 -557 0
556 -558 0
560 561 -559 0
559 -560 0
559 -561 0
563 564 -562 0
562 -563 0
562 -564 0
566 567 -565 0
565 -566 0
565 -567 0
569 570 -568 0
568 -569 0
568 -570 0
572 573 574 575 -571 0
571 -572 0
571 -573 0
571 -574 0
571 -575 0
577 578 -576 0
576 -577 0
576 -578 0
580 581 -579 0
579 -580 0
579 -581 0
583 584 -582 0
582 -583 0
582 -584 0
586 587 -585 0
585 -586 0
585 -587 0
589 590 -588 0
588 -589 0
588 -590 0
592 593 -591 0
591 -592 0
591 -593 0
595 596 -594 0
594 -595 0
594 -596 0
598 599 -597 0
597 -598 0
597 -599 0
601 602 -600 0
600 -601 0
600 -602 0
604 605 -603 0
603 -604 0
603 -605 0
607 608 -606 0
606 -607 0
606 -608 0
610 611 -609 0
609 -610 0
609 -611 0
613 614 -612 0
612 -613 0
612 -614 0
616 617 -615 0
615 -616 0
615 -617 0
619 620 -618 0
618 -619 0
618 -620 0
622 623 -621 0
621 -622 0
621 -623 0
625 626 -624 0
624 -625 0
624 -626 0
628 629 -627 0
627 -628 0
627 -629 0
631 632 -630 0
630 -631 0
630 -632 0
634 635 636 637 -633 0
633 -634 0
633 -635 0
633 -636 0
633 -637 0
639 640 -638 0
638 -639 0
638 -640 0
642 643 -641 0
641 -642 0
641 -643 0
645 646 -644 0
644 -645 0
644 -646 0
648 649 -647 0
647 -648 0
647 -649 0
651 652 -650 0
650 -651 0
650 -652 0
654 655 -653 0
653 -654 0
653 -655 0
657 658 -656 0
656 -657 0
656 -658 0
660 661 -659 0
659 -660 0
659 -661 0
663 664 -662 0
662 -663 0
662 -664 0
666 667 -665 0
665 -666 0
665 -667 0
669 670 -668 0
668 -669 0
668 -670 0
672 673 -671 0
671 -672 0
671 -673 0
675 676 -674 0
674 -675 0
674 -676 0
678 679 -677 0
677 -678 0
677 -679 0
681 682 -680 0
680 -681 0
680 -682 0
684 685 -683 0
683 -684 0
683 -685 0
687 688 -686 0
686 -687 0
686 -688 0
690 691 -689 0
689 -690 0
689 -691 0
693 694 -692 0
692 -693 0
692 -694 0
696 697 698 699 -695 0
695 -696 0
695 -697 0
695 -698 0
695 -699 0
701 702 -700 0
700 -701 0
700 -702 0
704 705 -703 0
703 -704 0
703 -705 0
707 708 -706 0
706 -707 0
706 -708 0
710 711 -709 0
709 -710 0
709 -711 0
713 714 -712 0
712 -713 0
712 -714 0
716 717 -715 0
715 -716 0
715 -717 0
719 720 -718 0
718 -719 0
718 -720 0
722 723 -721 0
721 -722 0
721 -723 0
725 726 -724 0
724 -725 0
724 -726 0
728 729 -727 0
727 -728 0
727 -729 0
731 732 -730 0
730 -731 0
730 -732 0
734 735 -733 0
733 -734 0
733 -735 0
737 738 -736 0
736 -737 0
736 -738 0
740 741 -739 0
739 -740 0
739 -741 0
743 744 -742 0
742 -743 0
742 -744 0
746 747 -745 0
745 -746 0
745 -747 0
749 750 -748 0
748 -749 0
748 -750 0
752 753 -751 0
751 -752 0
751 -753 0
755 756 -754 0
754 -755 0
754 -756 0
758 759 760 761 -757 0
757 -758 0
757 -759 0
757 -760 0
757 -761 0
763 764 -762 0
762 -763 0
762 -764 0
766 767 -765 0
765 -766 0
765 -767 0
769 770 -768 0
768 -769 0
768 -770 0
772 773 -771 0
771 -772 0
771 -773 0
775 776 -774 0
774 -775 0
774 -776 0
778 779 -777 0
777 -778 0
777 -779 0
781 782 -780 0
780 -781 0
780 -782 0
784 785 -783 0
783 -784 0
783 -785 0
787 788 -786 0
786 -787 0
786 -788 0
790 791 -789 0
789 -790 0
789 -791 0
793 794 -792 0
792 -793 0
792 -794 0
796 797 -795 0
795 -796 0
795 -797 0
799 800 -798 0
798 -799 0
798 -800 0
802 803 -801 0
801 -802 0
801 -803 0
805 806 -804 0
804 -805 0
804 -806 0
808 809 -807 0
807 -808 0
807 -809 0
811 812 -810 0
810 -811 0
810 -812 0
814 815 -813 0
813 -814 0
813 -815 0
817 818 -816 0
816 -817 0
816 -818 0
820 821 822 823 -819 0
819 -820 0
819 -821 0
819 -822 0
819 -823 0
825 826 -824 0
824 -825 0
824 -826 0
828 829 -827 0
827 -828 0
827 -829 0
831 832 -830 0
830 -831 0
830 -832 0
834 835 -833 0
833 -834 0
833 -835 0
837 838 -836 0
836 -837 0
836 -838 0
840 841 -839 0
839 -840 0
839 -841 0
843 844 -842 0
842 -843 0
842 -844 0
846 847 -845 0
845 -846 0
845 -847 0
849 850 -848 0
848 -849 0
848 -850 0
852 853 -851 0
851 -852 0
851 -853 0
855 856 -854 0
854 -855 0
854 -856 0
858 859 -857 0
857 -858 0
857 -859 0
861 862 -860 0
860 -861 0
860 -862 0
864 865 -863 0
863 -864 0
863 -865 0
867 868 -866 0
866 -867 0
866 -868 0
870 871 -869 0
869 -870 0
869 -871 0
873 874 -872 0
872 -873 0
872 -874 0
876 877 -875 0
875 -876 0
875 -877 0
879 880 -878 0
878 -879 0
878 -880 0
882 883 884 885 -881 0
881 -882 0
881 -883 0
881 -884 0
881 -885 0
887 888 -886 0
886 -887 0
886 -888 0
890 891 -889 0
889 -890 0
889 -891 0
893 894 -892 0
892 -893 0
892 -894 0
896 897 -895 0
895 -896 0
895 -897 0
899 900 -898 0
898 -899 0
898 -900 0
902 903 -901 0
901 -902 0
901 -903 0
905 906 -904 0
904 -905 0
904 -906 0
908 909 -907 0
907 -908 0
907 -909 0
911 912 -910 0
910 -911 0
910 -912 0
914 915 -913 0
913 -914 0
913 -915 0
917 918 -916 0
916 -917 0
916 -918 0
920 921 -919 0
919 -920 0
919 -921 0
923 924 -922 0
922 -923 0
922 -924 0
926 927 -925 0
925 -926 0
925 -927 0
929 930 -928 0
928 -929 0
928 -930 0
932 933 -931 0
931 -932 0
931 -933 0
935 936 -934 0
934 -935 0
934 -936 0
938 939 -937 0
937 -938 0
937 -939 0
941 942 -940 0
940 -941 0
940 -942 0
944 945 946 947 -943 0
943 -944 0
943 -945 0
943 -946 0
943 -947 0
949 950 -948 0
948 -949 0
948 -950 0
952 953 -951 0
951 -952 0
951 -953 0
955 956 -954 0
954 -955 0
954 -956 0
958 959 -957 0
957 -958 0
957 -959 0
961 962 -960 0
960 -961 0
960 -962 0
964 965 -963 0
963 -964 0
963 -965 0
967 968 -966 0
966 -967 0
966 -968 0
970 971 -969 0
969 -970 0
969 -971 0
973 974 -972 0
972 -973 0
972 -974 0
976 977 -975 0
975 -976 0
975 -977 0
979 980 -978 0
978 -979 0
978 -980 0
982 983 -981 0
981 -982 0
981 -983 0
985 986 -984 0
984 -985 0
984 -986 0
988 989 -987 0
987 -988 0
987 -989 0
991 992 -990 0
990 -991 0
990 -992 0
994 995 -993 0
993 -994 0
993 -995 0
997 998 -996 0
996 -997 0
996 -998 0
1000 1001 -999 0
999 -1000 0
999 -1001 0
1003 1004 -1002 0
1002 -1003 0
1002 -1004 0
1006 1007 1008 1009 -1005 0
1005 -1006 0
1005 -1007 0
1005 -1008 0
1005 -1009 0
1011 1012 -1010 0
1010 -1011 0
1010 -1012 0
1014 1015 -1013 0
1013 -1014 0
1013 -1015 0
1017 1018 -1016 0
1016 -1017 0
1016 -1018 0
1020 1021 -1019 0
1019 -1020 0
1019 -1021 0
1023 1024 -1022 0
1022 -1023 0
1022 -1024 0
1026 1027 -1025 0
1025 -1026 0
1025 -1027 0
1029 1030 -1028 0
1028 -1029 0
1028 -1030 0
1032 1033 -1031 0
1031 -1032 0
1031 -1033 0
1035 1036 -1034 0
1034 -1035 0
1034 -1036 0
1038 1039 -1037 0
1037 -1038 0
1037 -1039 0
1041 1042 -1040 0
1040 -1041 0
1040 -1042 0
1044 1045 -1043 0
1043 -1044 0
1043 -1045 0
1047 1048 -1046 0
1046 -1047 0
1046 -1048 0
1050 1051 -1049 0
1049 -1050 0
1049 -1051 0
1053 1054 -1052 0
1052 -1053 0
1052 -1054 0
1056 1057 -1055 0
1055 -1056 0
1055 -1057 0
1059 1060 -1058 0
1058 -1059 0
1058 -1060 0
1062 1063 -1061 0
1061 -1062 0
1061 -1063 0
1065 1066 -1064 0
1064 -1065 0
1064 -1066 0
1068 1069 1070 1071 -1067 0
1067 -1068 0
1067 -1069 0
1067 -1070 0
1067 -1071 0
1073 1074 -1072 0
1072 -1073 0
1072 -1074 0
1076 1077 -1075 0
1075 -1076 0
1075 -1077 0
1079 1080 -1078 0
1078 -1079 0
1078 -1080 0
1082 1083 -1081 0
1081 -1082 0
1081 -1083 0
1085 1086 -1084 0
1084 -1085 0
1084 -1086 0
1088 1089 -1087 0
1087 -1088 0
1087 -1089 0
1091 1092 -1090 0
1090 -1091 0
1090 -1092 0
1094 1095 -1093 0
1093 -1094 0
1093 -1095 0
1097 1098 -1096 0
1096 -1097 0
1096 -1098 0
1100 1101 -1099 0
1099 -1100 0
1099 -1101 0
1103 1104 -1102 0
1102 -1103 0
1102 -1104 0
1106 1107 -1105 0
1105 -1106 0
1105 -1107 0
1109 1110 -1108 0
1108 -1109 0
1108 -1110 0
1112 1113 -1111 0
1111 -1112 0
1111 -1113 0
1115 1116 -1114 0
1114 -1115 0
1114 -1116 0
1118 1119 -1117 0
1117 -1118 0
1117 -1119 0
1121 1122 -1120 0
1120 -1121 0
1120 -1122 0
1124 1125 -1123 0
1123 -1124 0
1123 -1125 0
1127 1128 -1126 0
1126 -1127 0
1126 -1128 0
1130 1131 1132 1133 -1129 0
1129 -1130 0
1129 -1131 0
1129 -1132 0
1129 -1133 0
1135 1136 -1134 0
1134 -1135 0
1134 -1136 0
1138 1139 -1137 0
1137 -1138 0
1137 -1139 0
1141 1142 -1140 0
1140 -1141 0
1140 -1142 0
1144 1145 -1143 0
1143 -1144 0
1143 -1145 0
1147 1148 -1146 0
1146 -1147 0
1146 -1148 0
1150 1151 -1149 0
1149 -1150 0
1149 -1151 0
1153 1154 -1152 0
1152 -1153 0
1152 -1154 0
1156 1157 -1155 0
1155 -1156 0
1155 -1157 0
1159 1160 -1158 0
1158 -1159 0
1158 -1160 0
1162 1163 -1161 0
1161 -1162 0
1161 -1163 0
1165 1166 -1164 0
1164 -1165 0
1164 -1166 0
1168 1169 -1167 0
1167 -1168 0
1167 -1169 0
1171 1172 -1170 0
1170 -1171 0
1170 -1172 0
1174 1175 -1173 0
1173 -1174 0
1173 -1175 0
1177 1178 -1176 0
1176 -1177 0
1176 -1178 0
1180 1181 -1179 0
1179 -1180 0
1179 -1181 0
1183 1184 -1182 0
1182 -1183 0
1182 -1184 0
1186 1187 -1185 0
1185 -1186 0
1185 -1187 0
1189 1190 -1188 0
1188 -1189 0
1188 -1190 0
1192 1193 1194 1195 -1191 0
1191 -1192 0
1191 -1193 0
1191 -1194 0
1191 -1195 0
1197 1198 -1196 0
1196 -1197 0
1196 -1198 0
1200 1201 -1199 0
1199 -1200 0
1199 -1201 0
1203 1204 -1202 0
1202 -1203 0
1202 -1204 0
1206 1207 -1205 0
1205 -1206 0
1205 -1207 0
1209 1210 -1208 0
1208 -1209 0
1208 -1210 0
1212 1213 -1211 0
1211 -1212 0
1211 -1213 0
1215 1216 -1214 0
1214 -1215 0
1214 -1216 0
1218 1219 -1217 0
1217 -1218 0
1217 -1219 0
1221 1222 -1220 0
1220 -1221 0
1220 -1222 0
1224 1225 -1223 0
1223 -1224 0
1223 -1225 0
1227 1228 -1226 0
1226 -1227 0
1226 -1228 0
1230 1231 -1229 0
1229 -1230 0
1229 -1231 0
1233 1234 -1232 0
1232 -1233 0
1232 -1234 0
1236 1237 -1235 0
1235 -1236 0
1235 -1237 0
1239 1240 -1238 0
1238 -1239 0
1238 -1240 0
1242 1243 -1241 0
1241 -1242 0
1241 -1243 0
1245 1246 -1244 0
1244 -1245 0
1244 -1246 0
1248 1249 -1247 0
1247 -1248 0
1247 -1249 0
1251 1252 -1250 0
1250 -1251 0
1250 -1252 0
1254 1255 1256 1257 -1253 0
1253 -1254 0
1253 -1255 0
1253 -1256 0
1253 -1257 0
1259 1260 -1258 0
1258 -1259 0
1258 -1260 0
1262 1263 -1261 0
1261 -1262 0
1261 -1263 0
1265 1266 -1264 0
1264 -1265 0
1264 -1266 0
1268 1269 -1267 0
1267 -1268 0
1267 -1269 0
1271 1272 -1270 0
1270 -1271 0
1270 -1272 0
1274 1275 -1273 0
1273 -1274 0
1273 -1275 0
1277 1278 -1276 0
1276 -1277 0
1276 -1278 0
1280 1281 -1279 0
1279 -1280 0
1279 -1281 0
1283 1284 -1282 0
1282 -1283 0
1282 -1284 0
1286 1287 -1285 0
1285 -1286 0
1285 -1287 0
1289 1290 -1288 0
1288 -1289 0
1288 -1290 0
1292 1293 -1291 0
1291 -1292 0
1291 -1293 0
1295 1296 -1294 0
1294 -1295 0
1294 -1296 0
1298 1299 -1297 0
1297 -1298 0
1297 -1299 0
1301 1302 -1300 0
1300 -1301 0
1300 -1302 0
1304 1305 -1303 0
1303 -1304 0
1303 -1305 0
1307 1308 -1306 0
1306 -1307 0
1306 -1308 0
1310 1311 -1309 0
1309 -1310 0
1309 -1311 0
1313 1314 -1312 0
1312 -1313 0
1312 -1314 0
1316 1317 1318 1319 -1315 0
1315 -1316 0
1315 -1317 0
1315 -1318 0
1315 -1319 0
1321 1322 -1320 0
1320 -1321 0
1320 -1322 0
1324 1325 -1323 0
1323 -1324 0
1323 -1325 0
1327 1328 -1326 0
1326 -1327 0
1326 -1328 0
1330 1331 -1329 0
1329 -1330 0
1329 -1331 0
1333 1334 -1332 0
1332 -1333 0
1332 -1334 0
1336 1337 -1335 0
1335 -1336 0
1335 -1337 0
1339 1340 -1338 0
1338 -1339 0
1338 -1340 0
1342 1343 -1341 0
1341 -1342 0
1341 -1343 0
1345 1346 -1344 0
1344 -1345 0
1344 -1346 0
1348 1349 -1347 0
1347 -1348 0
1347 -1349 0
1351 1352 -1350 0
1350 -1351 0
1350 -1352 0
1354 1355 -1353 0
1353 -1354 0
1353 -1355 0
1357 1358 -1356 0
1356 -1357 0
1356 -1358 0
1360 1361 -1359 0
1359 -1360 0
1359 -1361 0
1363 1364 -1362 0
1362 -1363 0
1362 -1364 0
1366 1367 -1365 0
1365 -1366 0
1365 -1367 0
1369 1370 -1368 0
1368 -1369 0
1368 -1370 0
1372 1373 -1371 0
1371 -1372 0
1371 -1373 0
1375 1376 -1374 0
1374 -1375 0
1374 -1376 0
1378 1379 1380 1381 -1377 0
1377 -1378 0
1377 -1379 0
1377 -1380 0
1377 -1381 0
1383 1384 -1382 0
1382 -1383 0
1382 -1384 0
1386 1387 -1385 0
1385 -1386 0
1385 -1387 0
1389 1390 -1388 0
1388 -1389 0
1388 -1390 0
1392 1393 -1391 0
1391 -1392 0
1391 -1393 0
1395 1396 -1394 0
1394 -1395 0
1394 -1396 0
1398 1399 -1397 0
1397 -1398 0
1397 -1399 0
1401 1402 -1400 0
1400 -1401 0
1400 -1402 0
1404 1405 -1403 0
1403 -1404 0
1403 -1405 0
1407 1408 -1406 0
1406 -1407 0
1406 -1408 0
1410 1411 -1409 0
1409 -1410 0
1409 -1411 0
1413 1414 -1412 0
1412 -1413 0
1412 -1414 0
1416 1417 -1415 0
1415 -1416 0
1415 -1417 0
1419 1420 -1418 0
1418 -1419 0
1418 -1420 0
1422 1423 -1421 0
1421 -1422 0
1421 -1423 0
1425 1426 -1424 0
1424 -1425 0
1424 -1426 0
1428 1429 -1427 0
1427 -1428 0
1427 -1429 0
1431 1432 -1430 0
1430 -1431 0
1430 -1432 0
1434 1435 -1433 0
1433 -1434 0
1433 -1435 0
1437 1438 -1436 0
1436 -1437 0
1436 -1438 0
1440 1441 1442 1443 -1439 0
1439 -1440 0
1439 -1441 0
1439 -1442 0
1439 -1443 0
1445 1446 -1444 0
1444 -1445 0
1444 -1446 0
1448 1449 -1447 0
1447 -1448 0
1447 -1449 0
1451 1452 -1450 0
1450 -1451 0
1450 -1452 0
1454 1455 -1453 0
1453 -1454 0
1453 -1455 0
1457 1458 -1456 0
1456 -1457 0
1456 -1458 0
1460 1461 -1459 0
1459 -1460 0
1459 -1461 0
1463 1464 -1462 0
1462 -1463 0
1462 -1464 0
1466 1467 -1465 0
1465 -1466 0
1465 -1467 0
1469 1470 -1468 0
1468 -1469 0
1468 -1470 0
1472 1473 -1471 0
1471 -1472 0
1471 -1473 0
1475 1476 -1474 0
1474 -1475 0
1474 -1476 0
1478 1479 -1477 0
1477 -1478 0
1477 -1479 0
1481 1482 -1480 0
1480 -1481 0
1480 -1482 0
1484 1485 -1483 0
1483 -1484 0
1483 -1485 0
1487 1488 -1486 0
1486 -1487 0
1486 -1488 0
1490 1491 -1489 0
1489 -1490 0
1489 -1491 0
1493 1494 -1492 0
1492 -1493 0
1492 -1494 0
1496 1497 -1495 0
1495 -1496 0
1495 -1497 0
1499 1500 -1498 0
1498 -1499 0
1498 -1500 0
1502 1503 1504 1505 -1501 0
1501 -1502 0
1501 -1503 0
1501 -1504 0
1501 -1505 0
1507 1508 -1506 0
1506 -1507 0
1506 -1508 0
1510 1511 -1509 0
1509 -1510 0
1509 -1511 0
1513 1514 -1512 0
1512 -1513 0
1512 -1514 0
1516 1517 -1515 0
1515 -1516 0
1515 -1517 0
1519 1520 -1518 0
1518 -1519 0
1518 -1520 0
1522 1523 -1521 0
1521 -1522 0
1521 -1523 0
1525 1526 -1524 0
1524 -1525 0
1524 -1526 0
1528 1529 -1527 0
1527 -1528 0
1527 -1529 0
1531 1532 -1530 0
1530 -1531 0
1530 -1532 0
1534 1535 -1533 0
1533 -1534 0
1533 -1535 0
1537 1538 -1536 0
1536 -1537 0
1536 -1538 0
1540 1541 -1539 0
1539 -1540 0
1539 -1541 0
1543 1544 -1542 0
1542 -1543 0
1542 -1544 0
1546 1547 -1545 0
1545 -1546 0
1545 -1547 0
1549 1550 -1548 0
1548 -1549 0
1548 -1550 0
1552 1553 -1551 0
1551 -1552 0
1551 -1553 0
1555 1556 -1554 0
1554 -1555 0
1554 -1556 0
1558 1559 -1557 0
1557 -1558 0
1557 -1559 0
1561 1562 -1560 0
1560 -1561 0
1560 -1562 0
1564 1565 1566 1567 -1563 0
1563 -1564 0
1563 -1565 0
1563 -1566 0
1563 -1567 0
1569 1570 -1568 0
1568 -1569 0
1568 -1570 0
1572 1573 -1571 0
1571 -1572 0
1571 -1573 0
1575 1576 -1574 0
1574 -1575 0
1574 -1576 0
1578 1579 -1577 0
1577 -1578 0
1577 -1579 0
1581 1582 -1580 0
1580 -1581 0
1580 -1582 0
1584 1585 -1583 0
1583 -1584 0
1583 -1585 0
1587 1588 -1586 0
1586 -1587 0
1586 -1588 0
1590 1591 -1589 0
1589 -1590 0
1589 -1591 0
1593 1594 -1592 0
1592 -1593 0
1592 -1594 0
1596 1597 -1595 0
1595 -1596 0
1595 -1597 0
1599 1600 -1598 0
1598 -1599 0
1598 -1600 0
1602 1603 -1601 0
1601 -1602 0
1601 -1603 0
1605 1606 -1604 0
1604 -1605 0
1604 -1606 0
1608 1609 -1607 0
1607 -1608 0
1607 -1609 0
1611 1612 -1610 0
1610 -1611 0
1610 -1612 0
1614 1615 -1613 0
1613 -1614 0
1613 -1615 0
1617 1618 -1616 0
1616 -1617 0
1616 -1618 0
1620 1621 -1619 0
1619 -1620 0
1619 -1621 0
1623 1624 -1622 0
1622 -1623 0
1622 -1624 0
1626 1627 1628 1629 -1625 0
1625 -1626 0
1625 -1627 0
1625 -1628 0
1625 -1629 0
1631 1632 -1630 0
1630 -1631 0
1630 -1632 0
1634 1635 -1633 0
1633 -1634 0
1633 -1635 0
1637 1638 -1636 0
1636 -1637 0
1636 -1638 0
1640 1641 -1639 0
1639 -1640 0
1639 -1641 0
1643 1644 -1642 0
1642 -1643 0
1642 -1644 0
1646 1647 -1645 0
1645 -1646 0
1645 -1647 0
1649 1650 -1648 0
1648 -1649 0
1648 -1650 0
1652 1653 -1651 0
1651 -1652 0
1651 -1653 0
1655 1656 -1654 0
1654 -1655 0
1654 -1656 0
1658 1659 -1657 0
1657 -1658 0
1657 -1659 0
1661 1662 -1660 0
1660 -1661 0
1660 -1662 0
1664 1665 -1663 0
1663 -1664 0
1663 -1665 0
1667 1668 -1666 0
1666 -1667 0
1666 -1668 0
1670 1671 -1669 0
1669 -1670 0
1669 -1671 0
1673 1674 -1672 0
1672 -1673 0
1672 -1674 0
1676 1677 -1675 0
1675 -1676 0
1675 -1677 0
1679 1680 -1678 0
1678 -1679 0
1678 -1680 0
1682 1683 -1681 0
1681 -1682 0
1681 -1683 0
1685 1686 -1684 0
1684 -1685 0
1684 -1686 0
1688 1689 1690 1691 -1687 0
1687 -1688 0
1687 -1689 0
1687 -1690 0
1687 -1691 0
1693 1694 -1692 0
1692 -1693 0
1692 -1694 0
1696 1697 -1695 0
1695 -1696 0
1695 -1697 0
1699 1700 -1698 0
1698 -1699 0
1698 -1700 0
1702 1703 -1701 0
1701 -1702 0
1701 -1703 0
1705 1706 -1704 0
1704 -1705 0
1704 -1706 0
1708 1709 -1707 0
1707 -1708 0
1707 -1709 0
1711 1712 -1710 0
1710 -1711 0
1710 -1712 0
1714 1715 -1713 0
1713 -1714 0
1713 -1715 0
1717 1718 -1716 0
1716 -1717 0
1716 -1718 0
1720 1721 -1719 0
1719 -1720 0
1719 -1721 0
1723 1724 -1722 0
1722 -1723 0
1722 -1724 0
1726 1727 -1725 0
1725 -1726 0
1725 -1727 0
1729 1730 -1728 0
1728 -1729 0
1728 -1730 0
1732 1733 -1731 0
1731 -1732 0
1731 -1733 0
1735 1736 -1734 0
1734 -1735 0
1734 -1736 0
1738 1739 -1737 0
1737 -1738 0
1737 -1739 0
1741 1742 -1740 0
1740 -1741 0
1740 -1742 0
1744 1745 -1743 0
1743 -1744 0
1743 -1745 0
1747 1748 -1746 0
1746 -1747 0
1746 -1748 0
1750 1751 1752 1753 -1749 0
1749 -1750 0
1749 -1751 0
1749 -1752 0
1749 -1753 0
1755 1756 -1754 0
1754 -1755 0
1754 -1756 0
1758 1759 -1757 0
1757 -1758 0
1757 -1759 0
1761 1762 -1760 0
1760 -1761 0
1760 -1762 0
1764 1765 -1763 0
1763 -1764 0
1763 -1765 0
1767 1768 -1766 0
1766 -1767 0
1766 -1768 0
1770 1771 -1769 0
1769 -1770 0
1769 -1771 0
1773 1774 -1772 0
1772 -1773 0
1772 -1774 0
1776 1777 -1775 0
1775 -1776 0
1775 -1777 0
1779 1780 -1778 0
1778 -1779 0
1778 -1780 0
1782 1783 -1781 0
1781 -1782 0
1781 -1783 0
1785 1786 -1784 0
1784 -1785 0
1784 -1786 0
1788 1789 -1787 0
1787 -1788 0
1787 -1789 0
1791 1792 -1790 0
1790 -1791 0
1790 -1792 0
1794 1795 -1793 0
1793 -1794 0
1793 -1795 0
1797 1798 -1796 0
1796 -1797 0
1796 -1798 0
1800 1801 -1799 0
1799 -1800 0
1799 -1801 0
1803 1804 -1802 0
1802 -1803 0
1802 -1804 0
1806 1807 -1805 0
1805 -1806 0
1805 -1807 0
1809 1810 -1808 0
1808 -1809 0
1808 -1810 0
1812 1813 1814 1815 -1811 0
1811 -1812 0
1811 -1813 0
1811 -1814 0
1811 -1815 0
1817 1818 -1816 0
1816 -1817 0
1816 -1818 0
1820 1821 -1819 0
1819 -1820 0
1819 -1821 0
1823 1824 -1822 0
1822 -1823 0
1822 -1824 0
1826 1827 -1825 0
1825 -1826 0
1825 -1827 0
1829 1830 -1828 0
1828 -1829 0
1828 -1830 0
1832 1833 -1831 0
1831 -1832 0
1831 -1833 0
1835 1836 -1834 0
1834 -1835 0
1834 -1836 0
1838 1839 -1837 0
1837 -1838 0
1837 -1839 0
1841 1842 -1840 0
1840 -1841 0
1840 -1842 0
1844 1845 -1843 0
1843 -1844 0
1843 -1845 0
1847 1848 -1846 0
1846 -1847 0
1846 -1848 0
1850 1851 -1849 0
1849 -1850 0
1849 -1851 0
1853 1854 -1852 0
1852 -1853 0
1852 -1854 0
1856 1857 -1855 0
1855 -1856 0
1855 -1857 0
1859 1860 -1858 0
1858 -1859 0
1858 -1860 0
1862 1863 -1861 0
1861 -1862 0
1861 -1863 0
1865 1866 -1864 0
1864 -1865 0
1864 -1866 0
1868 1869 -1867 0
1867 -1868 0
1867 -1869 0
1871 1872 -1870 0
1870 -1871 0
1870 -1872 0
1874 1875 1876 1877 -1873 0
1873 -1874 0
1873 -1875 0
1873 -1876 0
1873 -1877 0
1879 1880 -1878 0
1878 -1879 0
1878 -1880 0
1882 1883 -1881 0
1881 -1882 0
1881 -1883 0
1885 1886 -1884 0
1884 -1885 0
1884 -1886 0
1888 1889 -1887 0
1887 -1888 0
1887 -1889 0
1891 1892 -1890 0
1890 -1891 0
1890 -1892 0
1894 1895 -1893 0
1893 -1894 0
1893 -1895 0
1897 1898 -1896 0
1896 -1897 0
1896 -1898 0
1900 1901 -1899 0
1899 -1900 0
1899 -1901 0
1903 1904 -1902 0
1902 -1903 0
1902 -1904 0
1906 1907 -1905 0
1905 -1906 0
1905 -1907 0
1909 1910 -1908 0
1908 -1909 0
1908 -1910 0
1912 1913 -1911 0
1911 -1912 0
1911 -1913 0
1915 1916 -1914 0
1914 -1915 0
1914 -1916 0
1918 1919 -1917 0
1917 -1918 0
1917 -1919 0
1921 1922 -1920 0
1920 -1921 0
1920 -1922 0
1924 1925 -1923 0
1923 -1924 0
1923 -1925 0
1927 1928 -1926 0
1926 -1927 0
1926 -1928 0
1930 1931 -1929 0
1929 -1930 0
1929 -1931 0
1933 1934 -1932 0
1932 -1933 0
1932 -1934 0
1936 1937 1938 1939 -1935 0
1935 -1936 0
1935 -1937 0
1935 -1938 0
1935 -1939 0
1941 1942 -1940 0
1940 -1941 0
1940 -1942 0
1944 1945 -1943 0
1943 -1944 0
1943 -1945 0
1947 1948 -1946 0
1946 -1947 0
1946 -1948 0
1950 1951 -1949 0
1949 -1950 0
1949 -1951 0
1953 1954 -1952 0
1952 -1953 0
1952 -1954 0
1956 1957 -1955 0
1955 -1956 0
1955 -1957 0
1959 1960 -1958 0
1958 -1959 0
1958 -1960 0
1962 1963 -1961 0
1961 -1962 0
1961 -1963 0
1965 1966 -1964 0
1964 -1965 0
1964 -1966 0
1968 1969 -1967 0
1967 -1968 0
1967 -1969 0
1971 1972 -1970 0
1970 -1971 0
1970 -1972 0
1974 1975 -1973 0
1973 -1974 0
1973 -1975 0
1977 1978 -1976 0
1976 -1977 0
1976 -1978 0
1980 1981 -1979 0
1979 -1980 0
1979 -1981 0
1983 1984 -1982 0
1982 -1983 0
1982 -1984 0
1986 1987 -1985 0
1985 -1986 0
1985 -1987 0
1989 1990 -1988 0
1988 -1989 0
1988 -1990 0
1992 1993 -1991 0
1991 -1992 0
1991 -1993 0
1995 1996 -1994 0
1994 -1995 0
1994 -1996 0
1998 1999 -1997 0
1997 -1998 0
1997 -1999 0
2001 2002 -2000 0
2000 -2001 0
2000 -2002 0
2004 2005 -2003 0
2003 -2004 0
2003 -2005 0
2007 2008 -2006 0
2006 -2007 0
2006 -2008 0
2010 2011 -2009 0
2009 -2010 0
2009 -2011 0
2013 2014 -2012 0
2012 -2013 0
2012 -2014 0
2016 2017 -2015 0
2015 -2016 0
2015 -2017 0
2019 2020 -2018 0
2018 -2019 0
2018 -2020 0
2022 2023 -2021 0
2021 -2022 0
2021 -2023 0
2025 2026 -2024 0
2024 -2025 0
2024 -2026 0
2028 2029 -2027 0
2027 -2028 0
2027 -2029 0
2031 2032 -2030 0
2030 -2031 0
2030 -2032 0
2046 2047 2048 2049 -2045 0
2045 -2046 0
2045 -2047 0
2045 -2048 0
2045 -2049 0
2051 2052 -2050 0
2050 -2051 0
2050 -2052 0
2054 2055 -2053 0
2053 -2054 0
2053 -2055 0
2057 2058 -2056 0
2056 -2057 0
2056 -2058 0
2060 2061 -2059 0
2059 -2060 0
2059 -2061 0
2063 2064 -2062 0
2062 -2063 0
2062 -2064 0
2066 2067 -2065 0
2065 -2066 0
2065 -2067 0
2069 2070 -2068 0
2068 -2069 0
2068 -2070 0
2072 2073 -2071 0
2071 -2072 0
2071 -2073 0
2075 2076 -2074 0
2074 -2075 0
2074 -2076 0
2078 2079 -2077 0
2077 -2078 0
2077 -2079 0
2081 2082 -2080 0
2080 -2081 0
2080 -2082 0
2084 2085 -2083 0
2083 -2084 0
2083 -2085 0
2087 2088 -2086 0
2086 -2087 0
2086 -2088 0
2090 2091 -2089 0
2089 -2090 0
2089 -2091 0
2093 2094 -2092 0
2092 -2093 0
2092 -2094 0
2096 2097 -2095 0
2095 -2096 0
2095 -2097 0
2099 2100 -2098 0
2098 -2099 0
2098 -2100 0
2102 2103 -2101 0
2101 -2102 0
2101 -2103 0
2105 2106 -2104 0
2104 -2105 0
2104 -2106 0
2108 2109 2110 2111 -2107 0
2107 -2108 0
2107 -2109 0
2107 -2110 0
2107 -2111 0
2113 2114 -2112 0
2112 -2113 0
2112 -2114 0
2116 2117 -2115 0
2115 -2116 0
2115 -2117 0
2119 2120 -2118 0
2118 -2119 0
2118 -2120 0
2122 2123 -2121 0
2121 -2122 0
2121 -2123 0
2125 2126 -2124 0
2124 -2125 0
2124 -2126 0
2128 2129 -2127 0
2127 -2128 0
2127 -2129 0
2131 2132 -2130 0
2130 -2131 0
2130 -2132 0
2134 2135 -2133 0
2133 -2134 0
2133 -2135 0
2137 2138 -2136 0
2136 -2137 0
2136 -2138 0
2140 2141 -2139 0
2139 -2140 0
2139 -2141 0
2143 2144 -2142 0
2142 -2143 0
2142 -2144 0
2146 2147 -2145 0
2145 -2146 0
2145 -2147 0
2149 2150 -2148 0
2148 -2149 0
2148 -2150 0
2152 2153 -2151 0
2151 -2152 0
2151 -2153 0
2155 2156 -2154 0
2154 -2155 0
2154 -2156 0
2158 2159 -2157 0
2157 -2158 0
2157 -2159 0
2161 2162 -2160 0
2160 -2161 0
2160 -2162 0
2164 2165 -2163 0
2163 -2164 0
2163 -2165 0
2167 2168 -2166 0
2166 -2167 0
2166 -2168 0
2170 2171 2172 2173 -2169 0
2169 -2170 0
2169 -2171 0
2169 -2172 0
2169 -2173 0
2175 2176 -2174 0
2174 -2175 0
2174 -2176 0
2178 2179 -2177 0
2177 -2178 0
2177 -2179 0
2181 2182 -2180 0
2180 -2181 0
2180 -2182 0
2184 2185 -2183 0
2183 -2184 0
2183 -2185 0
2187 2188 -2186 0
2186 -2187 0
2186 -2188 0
2190 2191 -2189 0
2189 -2190 0
2189 -2191 0
2193 2194 -2192 0
2192 -2193 0
2192 -2194 0
2196 2197 -2195 0
2195 -2196 0
2195 -2197 0
2199 2200 -2198 0
2198 -2199 0
2198 -2200 0
2202 2203 -2201 0
2201 -2202 0
2201 -2203 0
2205 2206 -2204 0
2204 -2205 0
2204 -2206 0
2208 2209 -2207 0
2207 -2208 0
2207 -2209 0
2211 2212 -2210 0
2210 -2211 0
2210 -2212 0
2214 2215 -2213 0
2213 -2214 0
2213 -2215 0
2217 2218 -2216 0
2216 -2217 0
2216 -2218 0
2220 2221 -2219 0
2219 -2220 0
2219 -2221 0
2223 2224 -2222 0
2222 -2223 0
2222 -2224 0
2226 2227 -2225 0
2225 -2226 0
2225 -2227 0
2229 2230 -2228 0
2228 -2229 0
2228 -2230 0
2232 2233 2234 2235 -2231 0
2231 -2232 0
2231 -2233 0
2231 -2234 0
2231 -2235 0
2237 2238 -2236 0
2236 -2237 0
2236 -2238 0
2240 2241 -2239 0
2239 -2240 0
2239 -2241 0
2243 2244 -2242 0
2242 -2243 0
2242 -2244 0
2246 2247 -2245 0
2245 -2246 0
2245 -2247 0
2249 2250 -2248 0
2248 -2249 0
2248 -2250 0
2252 2253 -2251 0
2251 -2252 0
2251 -2253 0
2255 2256 -2254 0
2254 -2255 0
2254 -2256 0
2258 2259 -2257 0
2257 -2258 0
2257 -2259 0
2261 2262 -2260 0
2260 -2261 0
2260 -2262 0
2264 2265 -2263 0
2263 -2264 0
2263 -2265 0
2267 2268 -2266 0
2266 -2267 0
2266 -2268 0
2270 2271 -2269 0
2269 -2270 0
2269 -2271 0
2273 2274 -2272 0
2272 -2273 0
2272 -2274 0
2276 2277 -2275 0
2275 -2276 0
2275 -2277 0
2279 2280 -2278 0
2278 -2279 0
2278 -2280 0
2282 2283 -2281 0
2281 -2282 0
2281 -2283 0
2285 2286 -2284 0
2284 -2285 0
2284 -2286 0
2288 2289 -2287 0
2287 -2288 0
2287 -2289 0
2291 2292 -2290 0
2290 -2291 0
2290 -2292 0
2294 2295 2296 2297 -2293 0
2293 -2294 0
2293 -2295 0
2293 -2296 0
2293 -2297 0
2299 2300 -2298 0
2298 -2299 0
2298 -2300 0
2302 2303 -2301 0
2301 -2302 0
2301 -2303 0
2305 2306 -2304 0
2304 -2305 0
2304 -2306 0
2308 2309 -2307 0
2307 -2308 0
2307 -2309 0
2311 2312 -2310 0
2310 -2311 0
2310 -2312 0
2314 2315 -2313 0
2313 -2314 0
2313 -2315 0
2317 2318 -2316 0
2316 -2317 0
2316 -2318 0
2320 2321 -2319 0
2319 -2320 0
2319 -2321 0
2323 2324 -2322 0
2322 -2323 0
2322 -2324 0
2326 2327 -2325 0
2325 -2326 0
2325 -2327 0
2329 2330 -2328 0
2328 -2329 0
2328 -2330 0
2332 2333 -2331 0
2331 -2332 0
2331 -2333 0
2335 2336 -2334 0
2334 -2335 0
2334 -2336 0
2338 2339 -2337 0
2337 -2338 0
2337 -2339 0
2341 2342 -2340 0
2340 -2341 0
2340 -2342 0
2344 2345 -2343 0
2343 -2344 0
2343 -2345 0
2347 2348 -2346 0
2346 -2347 0
2346 -2348 0
2350 2351 -2349 0
2349 -2350 0
2349 -2351 0
2353 2354 -2352 0
2352 -2353 0
2352 -2354 0
2356 2357 2358 2359 -2355 0
2355 -2356 0
2355 -2357 0
2355 -2358 0
2355 -2359 0
2361 2362 -2360 0
2360 -2361 0
2360 -2362 0
2364 2365 -2363 0
2363 -2364 0
2363 -2365 0
2367 2368 -2366 0
2366 -2367 0
2366 -2368 0
2370 2371 -2369 0
2369 -2370 0
2369 -2371 0
2373 2374 -2372 0
2372 -2373 0
2372 -2374 0
2376 2377 -2375 0
2375 -2376 0
2375 -2377 0
2379 2380 -2378 0
2378 -2379 0
2378 -2380 0
2382 2383 -2381 0
2381 -2382 0
2381 -2383 0
2385 2386 -2384 0
2384 -2385 0
2384 -2386 0
2388 2389 -2387 0
2387 -2388 0
2387 -2389 0
2391 2392 -2390 0
2390 -2391 0
2390 -2392 0
2394 2395 -2393 0
2393 -2394 0
2393 -2395 0
2397 2398 -2396 0
2396 -2397 0
2396 -2398 0
2400 2401 -2399 0
2399 -2400 0
2399 -2401 0
2403 2404 -2402 0
2402 -2403 0
2402 -2404 0
2406 2407 -2405 0
2405 -2406 0
2405 -2407 0
2409 2410 -2408 0
2408 -2409 0
2408 -2410 0
2412 2413 -2411 0
2411 -2412 0
2411 -2413 0
2415 2416 -2414 0
2414 -2415 0
2414 -2416 0
2418 2419 2420 2421 -2417 0
2417 -2418 0
2417 -2419 0
2417 -2420 0
2417 -2421 0
2423 2424 -2422 0
2422 -2423 0
2422 -2424 0
2426 2427 -2425 0
2425 -2426 0
2425 -2427 0
2429 2430 -2428 0
2428 -2429 0
2428 -2430 0
2432 2433 -2431 0
2431 -2432 0
2431 -2433 0
2435 2436 -2434 0
2434 -2435 0
2434 -2436 0
2438 2439 -2437 0
2437 -2438 0
2437 -2439 0
2441 2442 -2440 0
2440 -2441 0
2440 -2442 0
2444 2445 -2443 0
2443 -2444 0
2443 -2445 0
2447 2448 -2446 0
2446 -2447 0
2446 -2448 0
2450 2451 -2449 0
2449 -2450 0
2449 -2451 0
2453 2454 -2452 0
2452 -2453 0
2452 -2454 0
2456 2457 -2455 0
2455 -2456 0
2455 -2457 0
2459 2460 -2458 0
2458 -2459 0
2458 -2460 0
2462 2463 -2461 0
2461 -2462 0
2461 -2463 0
2465 2466 -2464 0
2464 -2465 0
2464 -2466 0
2468 2469 -2467 0
2467 -2468 0
2467 -2469 0
2471 2472 -2470 0
2470 -2471 0
2470 -2472 0
2474 2475 -2473 0
2473 -2474 0
2473 -2475 0
2477 2478 -2476 0
2476 -2477 0
2476 -2478 0
2480 2481 2482 2483 -2479 0
2479 -2480 0
2479 -2481 0
2479 -2482 0
2479 -2483 0
2485 2486 -2484 0
2484 -2485 0
2484 -2486 0
2488 2489 -2487 0
2487 -2488 0
2487 -2489 0
2491 2492 -2490 0
2490 -2491 0
2490 -2492 0
2494 2495 -2493 0
2493 -2494 0
2493 -2495 0
2497 2498 -2496 0
2496 -2497 0
2496 -2498 0
2500 2501 -2499 0
2499 -2500 0
2499 -2501 0
2503 2504 -2502 0
2502 -2503 0
2502 -2504 0
2506 2507 -2505 0
2505 -2506 0
2505 -2507 0
2509 2510 -2508 0
2508 -2509 0
2508 -2510 0
2512 2513 -2511 0
2511 -2512 0
2511 -2513 0
2515 2516 -2514 0
2514 -2515 0
2514 -2516 0
2518 2519 -2517 0
2517 -2518 0
2517 -2519 0
2521 2522 -2520 0
2520 -2521 0
2520 -2522 0
2524 2525 -2523 0
2523 -2524 0
2523 -2525 0
2527 2528 -2526 0
2526 -2527 0
2526 -2528 0
2530 2531 -2529 0
2529 -2530 0
2529 -2531 0
2533 2534 -2532 0
2532 -2533 0
2532 -2534 0
2536 2537 -2535 0
2535 -2536 0
2535 -2537 0
2539 2540 -2538 0
2538 -2539 0
2538 -2540 0
2542 2543 2544 2545 -2541 0
2541 -2542 0
2541 -2543 0
2541 -2544 0
2541 -2545 0
2547 2548 -2546 0
2546 -2547 0
2546 -2548 0
2550 2551 -2549 0
2549 -2550 0
2549 -2551 0
2553 2554 -2552 0
2552 -2553 0
2552 -2554 0
2556 2557 -2555 0
2555 -2556 0
2555 -2557 0
2559 2560 -2558 0
2558 -2559 0
2558 -2560 0
2562 2563 -2561 0
2561 -2562 0
2561 -2563 0
2565 2566 -2564 0
2564 -2565 0
2564 -2566 0
2568 2569 -2567 0
2567 -2568 0
2567 -2569 0
2571 2572 -2570 0
2570 -2571 0
2570 -2572 0
2574 2575 -2573 0
2573 -2574 0
2573 -2575 0
2577 2578 -2576 0
2576 -2577 0
2576 -2578 0
2580 2581 -2579 0
2579 -2580 0
2579 -2581 0
2583 2584 -2582 0
2582 -2583 0
2582 -2584 0
2586 2587 -2585 0
2585 -2586 0
2585 -2587 0
2589 2590 -2588 0
2588 -2589 0
2588 -2590 0
2592 2593 -2591 0
2591 -2592 0
2591 -2593 0
2595 2596 -2594 0
2594 -2595 0
2594 -2596 0
2598 2599 -2597 0
2597 -2598 0
2597 -2599 0
2601 2602 -2600 0
2600 -2601 0
2600 -2602 0
2604 2605 2606 2607 -2603 0
2603 -2604 0
2603 -2605 0
2603 -2606 0
2603 -2607 0
2609 2610 -2608 0
2608 -2609 0
2608 -2610 0
2612 2613 -2611 0
2611 -2612 0
2611 -2613 0
2615 2616 -2614 0
2614 -2615 0
2614 -2616 0
2618 2619 -2617 0
2617 -2618 0
2617 -2619 0
2621 2622 -2620 0
2620 -2621 0
2620 -2622 0
2624 2625 -2623 0
2623 -2624 0
2623 -2625 0
2627 2628 -2626 0
2626 -2627 0
2626 -2628 0
2630 2631 -2629 0
2629 -2630 0
2629 -2631 0
2633 2634 -2632 0
2632 -2633 0
2632 -2634 0
2636 2637 -2635 0
2635 -2636 0
2635 -2637 0
2639 2640 -2638 0
2638 -2639 0
2638 -2640 0
2642 2643 -2641 0
2641 -2642 0
2641 -2643 0
2645 2646 -2644 0
2644 -2645 0
2644 -2646 0
2648 2649 -2647 0
2647 -2648 0
2647 -2649 0
2651 2652 -2650 0
2650 -2651 0
2650 -2652 0
2654 2655 -2653 0
2653 -2654 0
2653 -2655 0
2657 2658 -2656 0
2656 -2657 0
2656 -2658 0
2660 2661 -2659 0
2659 -2660 0
2659 -2661 0
2663 2664 -2662 0
2662 -2663 0
2662 -2664 0
2666 2667 2668 2669 -2665 0
2665 -2666 0
2665 -2667 0
2665 -2668 0
2665 -2669 0
2671 2672 -2670 0
2670 -2671 0
2670 -2672 0
2674 2675 -2673 0
2673 -2674 0
2673 -2675 0
2677 2678 -2676 0
2676 -2677 0
2676 -2678 0
2680 2681 -2679 0
2679 -2680 0
2679 -2681 0
2683 2684 -2682 0
2682 -2683 0
2682 -2684 0
2686 2687 -2685 0
2685 -2686 0
2685 -2687 0
2689 2690 -2688 0
2688 -2689 0
2688 -2690 0
2692 2693 -2691 0
2691 -2692 0
2691 -2693 0
2695 2696 -2694 0
2694 -2695 0
2694 -2696 0
2698 2699 -2697 0
2697 -2698 0
2697 -2699 0
2701 2702 -2700 0
2700 -2701 0
2700 -2702 0
2704 2705 -2703 0
2703 -2704 0
2703 -2705 0
2707 2708 -2706 0
2706 -2707 0
2706 -2708 0
2710 2711 -2709 0
2709 -2710 0
2709 -2711 0
2713 2714 -2712 0
2712 -2713 0
2712 -2714 0
2716 2717 -2715 0
2715 -2716 0
2715 -2717 0
2719 2720 -2718 0
2718 -2719 0
2718 -2720 0
2722 2723 -2721 0
2721 -2722 0
2721 -2723 0
2725 2726 -2724 0
2724 -2725 0
2724 -2726 0
2728 2729 2730 2731 -2727 0
2727 -2728 0
2727 -2729 0
2727 -2730 0
2727 -2731 0
2733 2734 -2732 0
2732 -2733 0
2732 -2734 0
2736 2737 -2735 0
2735 -2736 0
2735 -2737 0
2739 2740 -2738 0
2738 -2739 0
2738 -2740 0
2742 2743 -2741 0
2741 -2742 0
2741 -2743 0
2745 2746 -2744 0
2744 -2745 0
2744 -2746 0
2748 2749 -2747 0
2747 -2748 0
2747 -2749 0
2751 2752 -2750 0
2750 -2751 0
2750 -2752 0
2754 2755 -2753 0
2753 -2754 0
2753 -2755 0
2757 2758 -2756 0
2756 -2757 0
2756 -2758 0
2760 2761 -2759 0
2759 -2760 0
2759 -2761 0
2763 2764 -2762 0
2762 -2763 0
2762 -2764 0
2766 2767 -2765 0
2765 -2766 0
2765 -2767 0
2769 2770 -2768 0
2768 -2769 0
2768 -2770 0
2772 2773 -2771 0
2771 -2772 0
2771 -2773 0
2775 2776 -2774 0
2774 -2775 0
2774 -2776 0
2778 2779 -2777 0
2777 -2778 0
2777 -2779 0
2781 2782 -2780 0
2780 -2781 0
2780 -2782 0
2784 2785 -2783 0
2783 -2784 0
2783 -2785 0
2787 2788 -2786 0
2786 -2787 0
2786 -2788 0
2790 2791 2792 2793 -2789 0
2789 -2790 0
2789 -2791 0
2789 -2792 0
2789 -2793 0
2795 2796 -2794 0
2794 -2795 0
2794 -2796 0
2798 2799 -2797 0
2797 -2798 0
2797 -2799 0
2801 2802 -2800 0
2800 -2801 0
2800 -2802 0
2804 2805 -2803 0
2803 -2804 0
2803 -2805 0
2807 2808 -2806 0
2806 -2807 0
2806 -2808 0
2810 2811 -2809 0
2809 -2810 0
2809 -2811 0
2813 2814 -2812 0
2812 -2813 0
2812 -2814 0
2816 2817 -2815 0
2815 -2816 0
2815 -2817 0
2819 2820 -2818 0
2818 -2819 0
2818 -2820 0
2822 2823 -2821 0
2821 -2822 0
2821 -2823 0
2825 2826 -2824 0
2824 -2825 0
2824 -2826 0
2828 2829 -2827 0
2827 -2828 0
2827 -2829 0
2831 2832 -2830 0
2830 -2831 0
2830 -2832 0
2834 2835 -2833 0
2833 -2834 0
2833 -2835 0
2837 2838 -2836 0
2836 -2837 0
2836 -2838 0
2840 2841 -2839 0
2839 -2840 0
2839 -2841 0
2843 2844 -2842 0
2842 -2843 0
2842 -2844 0
2846 2847 -2845 0
2845 -2846 0
2845 -2847 0
2849 2850 -2848 0
2848 -2849 0
2848 -2850 0
2852 2853 2854 2855 -2851 0
2851 -2852 0
2851 -2853 0
2851 -2854 0
2851 -2855 0
2857 2858 -2856 0
2856 -2857 0
2856 -2858 0
2860 2861 -2859 0
2859 -2860 0
2859 -2861 0
2863 2864 -2862 0
2862 -2863 0
2862 -2864 0
2866 2867 -2865 0
2865 -2866 0
2865 -2867 0
2869 2870 -2868 0
2868 -2869 0
2868 -2870 0
2872 2873 -2871 0
2871 -2872 0
2871 -2873 0
2875 2876 -2874 0
2874 -2875 0
2874 -2876 0
2878 2879 -2877 0
2877 -2878 0
2877 -2879 0
2881 2882 -2880 0
2880 -2881 0
2880 -2882 0
2884 2885 -2883 0
2883 -2884 0
2883 -2885 0
2887 2888 -2886 0
2886 -2887 0
2886 -2888 0
2890 2891 -2889 0
2889 -2890 0
2889 -2891 0
2893 2894 -2892 0
2892 -2893 0
2892 -2894 0
2896 2897 -2895 0
2895 -2896 0
2895 -2897 0
2899 2900 -2898 0
2898 -2899 0
2898 -2900 0
2902 2903 -2901 0
2901 -2902 0
2901 -2903 0
2905 2906 -2904 0
2904 -2905 0
2904 -2906 0
2908 2909 -2907 0
2907 -2908 0
2907 -2909 0
2911 2912 -2910 0
2910 -2911 0
2910 -2912 0
2914 2915 2916 2917 -2913 0
2913 -2914 0
2913 -2915 0
2913 -2916 0
2913 -2917 0
2919 2920 -2918 0
2918 -2919 0
2918 -2920 0
2922 2923 -2921 0
2921 -2922 0
2921 -2923 0
2925 2926 -2924 0
2924 -2925 0
2924 -2926 0
2928 2929 -2927 0
2927 -2928 0
2927 -2929 0
2931 2932 -2930 0
2930 -2931 0
2930 -2932 0
2934 2935 -2933 0
2933 -2934 0
2933 -2935 0
2937 2938 -2936 0
2936 -2937 0
2936 -2938 0
2940 2941 -2939 0
2939 -2940 0
2939 -2941 0
2943 2944 -2942 0
2942 -2943 0
2942 -2944 0
2946 2947 -2945 0
2945 -2946 0
2945 -2947 0
2949 2950 -2948 0
2948 -2949 0
2948 -2950 0
2952 2953 -2951 0
2951 -2952 0
2951 -2953 0
2955 2956 -2954 0
2954 -2955 0
2954 -2956 0
2958 2959 -2957 0
2957 -2958 0
2957 -2959 0
2961 2962 -2960 0
2960 -2961 0
2960 -2962 0
2964 2965 -2963 0
2963 -2964 0
2963 -2965 0
2967 2968 -2966 0
2966 -2967 0
2966 -2968 0
2970 2971 -2969 0
2969 -2970 0
2969 -2971 0
2973 2974 -2972 0
2972 -2973 0
2972 -2974 0
2976 2977 2978 2979 -2975 0
2975 -2976 0
2975 -2977 0
2975 -2978 0
2975 -2979 0
2981 2982 -2980 0
2980 -2981 0
2980 -2982 0
2984 2985 -2983 0
2983 -2984 0
2983 -2985 0
2987 2988 -2986 0
2986 -2987 0
2986 -2988 0
2990 2991 -2989 0
2989 -2990 0
2989 -2991 0
2993 2994 -2992 0
2992 -2993 0
2992 -2994 0
2996 2997 -2995 0
2995 -2996 0
2995 -2997 0
2999 3000 -2998 0
2998 -2999 0
2998 -3000 0
3002 3003 -3001 0
3001 -3002 0
3001 -3003 0
3005 3006 -3004 0
3004 -3005 0
3004 -3006 0
3008 3009 -3007 0
3007 -3008 0
3007 -3009 0
3011 3012 -3010 0
3010 -3011 0
3010 -3012 0
3014 3015 -3013 0
3013 -3014 0
3013 -3015 0
3017 3018 -3016 0
3016 -3017 0
3016 -3018 0
3020 3021 -3019 0
3019 -3020 0
3019 -3021 0
3023 3024 -3022 0
3022 -3023 0
3022 -3024 0
3026 3027 -3025 0
3025 -3026 0
3025 -3027 0
3029 3030 -3028 0
3028 -3029 0
3028 -3030 0
3032 3033 -3031 0
3031 -3032 0
3031 -3033 0
3035 3036 -3034 0
3034 -3035 0
3034 -3036 0
3038 3039 3040 3041 -3037 0
3037 -3038 0
3037 -3039 0
3037 -3040 0
3037 -3041 0
3043 3044 -3042 0
3042 -3043 0
3042 -3044 0
3046 3047 -3045 0
3045 -3046 0
3045 -3047 0
3049 3050 -3048 0
3048 -3049 0
3048 -3050 0
3052 3053 -3051 0
3051 -3052 0
3051 -3053 0
3055 3056 -3054 0
3054 -3055 0
3054 -3056 0
3058 3059 -3057 0
3057 -3058 0
3057 -3059 0
3061 3062 -3060 0
3060 -3061 0
3060 -3062 0
3064 3065 -3063 0
3063 -3064 0
3063 -3065 0
3067 3068 -3066 0
3066 -3067 0
3066 -3068 0
3070 3071 -3069 0
3069 -3070 0
3069 -3071 0
3073 3074 -3072 0
3072 -3073 0
3072 -3074 0
3076 3077 -3075 0
3075 -3076 0
3075 -3077 0
3079 3080 -3078 0
3078 -3079 0
3078 -3080 0
3082 3083 -3081 0
3081 -3082 0
3081 -3083 0
3085 3086 -3084 0
3084 -3085 0
3084 -3086 0
3088 3089 -3087 0
3087 -3088 0
3087 -3089 0
3091 3092 -3090 0
3090 -3091 0
3090 -3092 0
3094 3095 -3093 0
3093 -3094 0
3093 -3095 0
3097 3098 -3096 0
3096 -3097 0
3096 -3098 0
3100 3101 3102 3103 -3099 0
3099 -3100 0
3099 -3101 0
3099 -3102 0
3099 -3103 0
3105 3106 -3104 0
3104 -3105 0
3104 -3106 0
3108 3109 -3107 0
3107 -3108 0
3107 -3109 0
3111 3112 -3110 0
3110 -3111 0
3110 -3112 0
3114 3115 -3113 0
3113 -3114 0
3113 -3115 0
3117 3118 -3116 0
3116 -3117 0
3116 -3118 0
3120 3121 -3119 0
3119 -3120 0
3119 -3121 0
3123 3124 -3122 0
3122 -3123 0
3122 -3124 0
3126 3127 -3125 0
3125 -3126 0
3125 -3127 0
3129 3130 -3128 0
3128 -3129 0
3128 -3130 0
3132 3133 -3131 0
3131 -3132 0
3131 -3133 0
3135 3136 -3134 0
3134 -3135 0
3134 -3136 0
3138 3139 -3137 0
3137 -3138 0
3137 -3139 0
3141 3142 -3140 0
3140 -3141 0
3140 -3142 0
3144 3145 -3143 0
3143 -3144 0
3143 -3145 0
3147 3148 -3146 0
3146 -3147 0
3146 -3148 0
3150 3151 -3149 0
3149 -3150 0
3149 -3151 0
3153 3154 -3152 0
3152 -3153 0
3152 -3154 0
3156 3157 -3155 0
3155 -3156 0
3155 -3157 0
3159 3160 -3158 0
3158 -3159 0
3158 -3160 0
3162 3163 3164 3165 -3161 0
3161 -3162 0
3161 -3163 0
3161 -3164 0
3161 -3165 0
3167 3168 -3166 0
3166 -3167 0
3166 -3168 0
3170 3171 -3169 0
3169 -3170 0
3169 -3171 0
3173 3174 -3172 0
3172 -3173 0
3172 -3174 0
3176 3177 -3175 0
3175 -3176 0
3175 -3177 0
3179 3180 -3178 0
3178 -3179 0
3178 -3180 0
3182 3183 -3181 0
3181 -3182 0
3181 -3183 0
3185 3186 -3184 0
3184 -3185 0
3184 -3186 0
3188 3189 -3187 0
3187 -3188 0
3187 -3189 0
3191 3192 -3190 0
3190 -3191 0
3190 -3192 0
3194 3195 -3193 0
3193 -3194 0
3193 -3195 0
3197 3198 -3196 0
3196 -3197 0
3196 -3198 0
3200 3201 -3199 0
3199 -3200 0
3199 -3201 0
3203 3204 -3202 0
3202 -3203 0
3202 -3204 0
3206 3207 -3205 0
3205 -3206 0
3205 -3207 0
3209 3210 -3208 0
3208 -3209 0
3208 -3210 0
3212 3213 -3211 0
3211 -3212 0
3211 -3213 0
3215 3216 -3214 0
3214 -3215 0
3214 -3216 0
3218 3219 -3217 0
3217 -3218 0
3217 -3219 0
3221 3222 -3220 0
3220 -3221 0
3220 -3222 0
3224 3225 3226 3227 -3223 0
3223 -3224 0
3223 -3225 0
3223 -3226 0
3223 -3227 0
3229 3230 -3228 0
3228 -3229 0
3228 -3230 0
3232 3233 -3231 0
3231 -3232 0
3231 -3233 0
3235 3236 -3234 0
3234 -3235 0
3234 -3236 0
3238 3239 -3237 0
3237 -3238 0
3237 -3239 0
3241 3242 -3240 0
3240 -3241 0
3240 -3242 0
3244 3245 -3243 0
3243 -3244 0
3243 -3245 0
3247 3248 -3246 0
3246 -3247 0
3246 -3248 0
3250 3251 -3249 0
3249 -3250 0
3249 -3251 0
3253 3254 -3252 0
3252 -3253 0
3252 -3254 0
3256 3257 -3255 0
3255 -3256 0
3255 -3257 0
3259 3260 -3258 0
3258 -3259 0
3258 -3260 0
3262 3263 -3261 0
3261 -3262 0
3261 -3263 0
3265 3266 -3264 0
3264 -3265 0
3264 -3266 0
3268 3269 -3267 0
3267 -3268 0
3267 -3269 0
3271 3272 -3270 0
3270 -3271 0
3270 -3272 0
3274 3275 -3273 0
3273 -3274 0
3273 -3275 0
3277 3278 -3276 0
3276 -3277 0
3276 -3278 0
3280 3281 -3279 0
3279 -3280 0
3279 -3281 0
3283 3284 -3282 0
3282 -3283 0
3282 -3284 0
3286 3287 3288 3289 -3285 0
3285 -3286 0
3285 -3287 0
3285 -3288 0
3285 -3289 0
3291 3292 -3290 0
3290 -3291 0
3290 -3292 0
3294 3295 -3293 0
3293 -3294 0
3293 -3295 0
3297 3298 -3296 0
3296 -3297 0
3296 -3298 0
3300 3301 -3299 0
3299 -3300 0
3299 -3301 0
3303 3304 -3302 0
3302 -3303 0
3302 -3304 0
3306 3307 -3305 0
3305 -3306 0
3305 -3307 0
3309 3310 -3308 0
3308 -3309 0
3308 -3310 0
3312 3313 -3311 0
3311 -3312 0
3311 -3313 0
3315 3316 -3314 0
3314 -3315 0
3314 -3316 0
3318 3319 -3317 0
3317 -3318 0
3317 -3319 0
3321 3322 -3320 0
3320 -3321 0
3320 -3322 0
3324 3325 -3323 0
3323 -3324 0
3323 -3325 0
3327 3328 -3326 0
3326 -3327 0
3326 -3328 0
3330 3331 -3329 0
3329 -3330 0
3329 -3331 0
3333 3334 -3332 0
3332 -3333 0
3332 -3334 0
3336 3337 -3335 0
3335 -3336 0
3335 -3337 0
3339 3340 -3338 0
3338 -3339 0
3338 -3340 0
3342 3343 -3341 0
3341 -3342 0
3341 -3343 0
3345 3346 -3344 0
3344 -3345 0
3344 -3346 0
3348 3349 3350 3351 -3347 0
3347 -3348 0
3347 -3349 0
3347 -3350 0
3347 -3351 0
3353 3354 -3352 0
3352 -3353 0
3352 -3354 0
3356 3357 -3355 0
3355 -3356 0
3355 -3357 0
3359 3360 -3358 0
3358 -3359 0
3358 -3360 0
3362 3363 -3361 0
3361 -3362 0
3361 -3363 0
3365 3366 -3364 0
3364 -3365 0
3364 -3366 0
3368 3369 -3367 0
3367 -3368 0
3367 -3369 0
3371 3372 -3370 0
3370 -3371 0
3370 -3372 0
3374 3375 -3373 0
3373 -3374 0
3373 -3375 0
3377 3378 -3376 0
3376 -3377 0
3376 -3378 0
3380 3381 -3379 0
3379 -3380 0
3379 -3381 0
3383 3384 -3382 0
3382 -3383 0
3382 -3384 0
3386 3387 -3385 0
3385 -3386 0
3385 -3387 0
3389 3390 -3388 0
3388 -3389 0
3388 -3390 0
3392 3393 -3391 0
3391 -3392 0
3391 -3393 0
3395 3396 -3394 0
3394 -3395 0
3394 -3396 0
3398 3399 -3397 0
3397 -3398 0
3397 -3399 0
3401 3402 -3400 0
3400 -3401 0
3400 -3402 0
3404 3405 -3403 0
3403 -3404 0
3403 -3405 0
3407 3408 -3406 0
3406 -3407 0
3406 -3408 0
3410 3411 3412 3413 -3409 0
3409 -3410 0
3409 -3411 0
3409 -3412 0
3409 -3413 0
3415 3416 -3414 0
3414 -3415 0
3414 -3416 0
3418 3419 -3417 0
3417 -3418 0
3417 -3419 0
3421 3422 -3420 0
3420 -3421 0
3420 -3422 0
3424 3425 -3423 0
3423 -3424 0
3423 -3425 0
3427 3428 -3426 0
3426 -3427 0
3426 -3428 0
3430 3431 -3429 0
3429 -3430 0
3429 -3431 0
3433 3434 -3432 0
3432 -3433 0
3432 -3434 0
3436 3437 -3435 0
3435 -3436 0
3435 -3437 0
3439 3440 -3438 0
3438 -3439 0
3438 -3440 0
3442 3443 -3441 0
3441 -3442 0
3441 -3443 0
3445 3446 -3444 0
3444 -3445 0
3444 -3446 0
3448 3449 -3447 0
3447 -3448 0
3447 -3449 0
3451 3452 -3450 0
3450 -3451 0
3450 -3452 0
3454 3455 -3453 0
3453 -3454 0
3453 -3455 0
3457 3458 -3456 0
3456 -3457 0
3456 -3458 0
3460 3461 -3459 0
3459 -3460 0
3459 -3461 0
3463 3464 -3462 0
3462 -3463 0
3462 -3464 0
3466 3467 -3465 0
3465 -3466 0
3465 -3467 0
3469 3470 -3468 0
3468 -3469 0
3468 -3470 0
3472 3473 3474 3475 -3471 0
3471 -3472 0
3471 -3473 0
3471 -3474 0
3471 -3475 0
3477 3478 -3476 0
3476 -3477 0
3476 -3478 0
3480 3481 -3479 0
3479 -3480 0
3479 -3481 0
3483 3484 -3482 0
3482 -3483 0
3482 -3484 0
3486 3487 -3485 0
3485 -3486 0
3485 -3487 0
3489 3490 -3488 0
3488 -3489 0
3488 -3490 0
3492 3493 -3491 0
3491 -3492 0
3491 -3493 0
3495 3496 -3494 0
3494 -3495 0
3494 -3496 0
3498 3499 -3497 0
3497 -3498 0
3497 -3499 0
3501 3502 -3500 0
3500 -3501 0
3500 -3502 0
3504 3505 -3503 0
3503 -3504 0
3503 -3505 0
3507 3508 -3506 0
3506 -3507 0
3506 -3508 0
3510 3511 -3509 0
3509 -3510 0
3509 -3511 0
3513 3514 -3512 0
3512 -3513 0
3512 -3514 0
3516 3517 -3515 0
3515 -3516 0
3515 -3517 0
3519 3520 -3518 0
3518 -3519 0
3518 -3520 0
3522 3523 -3521 0
3521 -3522 0
3521 -3523 0
3525 3526 -3524 0
3524 -3525 0
3524 -3526 0
3528 3529 -3527 0
3527 -3528 0
3527 -3529 0
3531 3532 -3530 0
3530 -3531 0
3530 -3532 0
3534 3535 3536 3537 -3533 0
3533 -3534 0
3533 -3535 0
3533 -3536 0
3533 -3537 0
3539 3540 -3538 0
3538 -3539 0
3538 -3540 0
3542 3543 -3541 0
3541 -3542 0
3541 -3543 0
3545 3546 -3544 0
3544 -3545 0
3544 -3546 0
3548 3549 -3547 0
3547 -3548 0
3547 -3549 0
3551 3552 -3550 0
3550 -3551 0
3550 -3552 0
3554 3555 -3553 0
3553 -3554 0
3553 -3555 0
3557 3558 -3556 0
3556 -3557 0
3556 -3558 0
3560 3561 -3559 0
3559 -3560 0
3559 -3561 0
3563 3564 -3562 0
3562 -3563 0
3562 -3564 0
3566 3567 -3565 0
3565 -3566 0
3565 -3567 0
3569 3570 -3568 0
3568 -3569 0
3568 -3570 0
3572 3573 -3571 0
3571 -3572 0
3571 -3573 0
3575 3576 -3574 0
3574 -3575 0
3574 -3576 0
3578 3579 -3577 0
3577 -3578 0
3577 -3579 0
3581 3582 -3580 0
3580 -3581 0
3580 -3582 0
3584 3585 -3583 0
3583 -3584 0
3583 -3585 0
3587 3588 -3586 0
3586 -3587 0
3586 -3588 0
3590 3591 -3589 0
3589 -3590 0
3589 -3591 0
3593 3594 -3592 0
3592 -3593 0
3592 -3594 0
3596 3597 3598 3599 -3595 0
3595 -3596 0
3595 -3597 0
3595 -3598 0
3595 -3599 0
3601 3602 -3600 0
3600 -3601 0
3600 -3602 0
3604 3605 -3603 0
3603 -3604 0
3603 -3605 0
3607 3608 -3606 0
3606 -3607 0
3606 -3608 0
3610 3611 -3609 0
3609 -3610 0
3609 -3611 0
3613 3614 -3612 0
3612 -3613 0
3612 -3614 0
3616 3617 -3615 0
3615 -3616 0
3615 -3617 0
3619 3620 -3618 0
3618 -3619 0
3618 -3620 0
3622 3623 -3621 0
3621 -3622 0
3621 -3623 0
3625 3626 -3624 0
3624 -3625 0
3624 -3626 0
3628 3629 -3627 0
3627 -3628 0
3627 -3629 0
3631 3632 -3630 0
3630 -3631 0
3630 -3632 0
3634 3635 -3633 0
3633 -3634 0
3633 -3635 0
3637 3638 -3636 0
3636 -3637 0
3636 -3638 0
3640 3641 -3639 0
3639 -3640 0
3639 -3641 0
3643 3644 -3642 0
3642 -3643 0
3642 -3644 0
3646 3647 -3645 0
3645 -3646 0
3645 -3647 0
3649 3650 -3648 0
3648 -3649 0
3648 -3650 0
3652 3653 -3651 0
3651 -3652 0
3651 -3653 0
3655 3656 -3654 0
3654 -3655 0
3654 -3656 0
3658 3659 3660 3661 -3657 0
3657 -3658 0
3657 -3659 0
3657 -3660 0
3657 -3661 0
3663 3664 -3662 0
3662 -3663 0
3662 -3664 0
3666 3667 -3665 0
3665 -3666 0
3665 -3667 0
3669 3670 -3668 0
3668 -3669 0
3668 -3670 0
3672 3673 -3671 0
3671 -3672 0
3671 -3673 0
3675 3676 -3674 0
3674 -3675 0
3674 -3676 0
3678 3679 -3677 0
3677 -3678 0
3677 -3679 0
3681 3682 -3680 0
3680 -3681 0
3680 -3682 0
3684 3685 -3683 0
3683 -3684 0
3683 -3685 0
3687 3688 -3686 0
3686 -3687 0
3686 -3688 0
3690 3691 -3689 0
3689 -3690 0
3689 -3691 0
3693 3694 -3692 0
3692 -3693 0
3692 -3694 0
3696 3697 -3695 0
3695 -3696 0
3695 -3697 0
3699 3700 -3698 0
3698 -3699 0
3698 -3700 0
3702 3703 -3701 0
3701 -3702 0
3701 -3703 0
3705 3706 -3704 0
3704 -3705 0
3704 -3706 0
3708 3709 -3707 0
3707 -3708 0
3707 -3709 0
3711 3712 -3710 0
3710 -3711 0
3710 -3712 0
3714 3715 -3713 0
3713 -3714 0
3713 -3715 0
3717 3718 -3716 0
3716 -3717 0
3716 -3718 0
3720 3721 3722 3723 -3719 0
3719 -3720 0
3719 -3721 0
3719 -3722 0
3719 -3723 0
3725 3726 -3724 0
3724 -3725 0
3724 -3726 0
3728 3729 -3727 0
3727 -3728 0
3727 -3729 0
3731 3732 -3730 0
3730 -3731 0
3730 -3732 0
3734 3735 -3733 0
3733 -3734 0
3733 -3735 0
3737 3738 -3736 0
3736 -3737 0
3736 -3738 0
3740 3741 -3739 0
3739 -3740 0
3739 -3741 0
3743 3744 -3742 0
3742 -3743 0
3742 -3744 0
3746 3747 -3745 0
3745 -3746 0
3745 -3747 0
3749 3750 -3748 0
3748 -3749 0
3748 -3750 0
3752 3753 -3751 0
3751 -3752 0
3751 -3753 0
3755 3756 -3754 0
3754 -3755 0
3754 -3756 0
3758 3759 -3757 0
3757 -3758 0
3757 -3759 0
3761 3762 -3760 0
3760 -3761 0
3760 -3762 0
3764 3765 -3763 0
3763 -3764 0
3763 -3765 0
3767 3768 -3766 0
3766 -3767 0
3766 -3768 0
3770 3771 -3769 0
3769 -3770 0
3769 -3771 0
3773 3774 -3772 0
3772 -3773 0
3772 -3774 0
3776 3777 -3775 0
3775 -3776 0
3775 -3777 0
3779 3780 -3778 0
3778 -3779 0
3778 -3780 0
3782 3783 3784 3785 -3781 0
3781 -3782 0
3781 -3783 0
3781 -3784 0
3781 -3785 0
3787 3788 -3786 0
3786 -3787 0
3786 -3788 0
3790 3791 -3789 0
3789 -3790 0
3789 -3791 0
3793 3794 -3792 0
3792 -3793 0
3792 -3794 0
3796 3797 -3795 0
3795 -3796 0
3795 -3797 0
3799 3800 -3798 0
3798 -3799 0
3798 -3800 0
3802 3803 -3801 0
3801 -3802 0
3801 -3803 0
3805 3806 -3804 0
3804 -3805 0
3804 -3806 0
3808 3809 -3807 0
3807 -3808 0
3807 -3809 0
3811 3812 -3810 0
3810 -3811 0
3810 -3812 0
3814 3815 -3813 0
3813 -3814 0
3813 -3815 0
3817 3818 -3816 0
3816 -3817 0
3816 -3818 0
3820 3821 -3819 0
3819 -3820 0
3819 -3821 0
3823 3824 -3822 0
3822 -3823 0
3822 -3824 0
3826 3827 -3825 0
3825 -3826 0
3825 -3827 0
3829 3830 -3828 0
3828 -3829 0
3828 -3830 0
3832 3833 -3831 0
3831 -3832 0
3831 -3833 0
3835 3836 -3834 0
3834 -3835 0
3834 -3836 0
3838 3839 -3837 0
3837 -3838 0
3837 -3839 0
3841 3842 -3840 0
3840 -3841 0
3840 -3842 0
3844 3845 3846 3847 -3843 0
3843 -3844 0
3843 -3845 0
3843 -3846 0
3843 -3847 0
3849 3850 -3848 0
3848 -3849 0
3848 -3850 0
3852 3853 -3851 0
3851 -3852 0
3851 -3853 0
3855 3856 -3854 0
3854 -3855 0
3854 -3856 0
3858 3859 -3857 0
3857 -3858 0
3857 -3859 0
3861 3862 -3860 0
3860 -3861 0
3860 -3862 0
3864 3865 -3863 0
3863 -3864 0
3863 -3865 0
3867 3868 -3866 0
3866 -3867 0
3866 -3868 0
3870 3871 -3869 0
3869 -3870 0
3869 -3871 0
3873 3874 -3872 0
3872 -3873 0
3872 -3874 0
3876 3877 -3875 0
3875 -3876 0
3875 -3877 0
3879 3880 -3878 0
3878 -3879 0
3878 -3880 0
3882 3883 -3881 0
3881 -3882 0
3881 -3883 0
3885 3886 -3884 0
3884 -3885 0
3884 -3886 0
3888 3889 -3887 0
3887 -3888 0
3887 -3889 0
3891 3892 -3890 0
3890 -3891 0
3890 -3892 0
3894 3895 -3893 0
3893 -3894 0
3893 -3895 0
3897 3898 -3896 0
3896 -3897 0
3896 -3898 0
3900 3901 -3899 0
3899 -3900 0
3899 -3901 0
3903 3904 -3902 0
3902 -3903 0
3902 -3904 0
3906 3907 3908 3909 -3905 0
3905 -3906 0
3905 -3907 0
3905 -3908 0
3905 -3909 0
3911 3912 -3910 0
3910 -3911 0
3910 -3912 0
3914 3915 -3913 0
3913 -3914 0
3913 -3915 0
3917 3918 -3916 0
3916 -3917 0
3916 -3918 0
3920 3921 -3919 0
3919 -3920 0
3919 -3921 0
3923 3924 -3922 0
3922 -3923 0
3922 -3924 0
3926 3927 -3925 0
3925 -3926 0
3925 -3927 0
3929 3930 -3928 0
3928 -3929 0
3928 -3930 0
3932 3933 -3931 0
3931 -3932 0
3931 -3933 0
3935 3936 -3934 0
3934 -3935 0
3934 -3936 0
3938 3939 -3937 0
3937 -3938 0
3937 -3939 0
3941 3942 -3940 0
3940 -3941 0
3940 -3942 0
3944 3945 -3943 0
3943 -3944 0
3943 -3945 0
3947 3948 -3946 0
3946 -3947 0
3946 -3948 0
3950 3951 -3949 0
3949 -3950 0
3949 -3951 0
3953 3954 -3952 0
3952 -3953 0
3952 -3954 0
3956 3957 -3955 0
3955 -3956 0
3955 -3957 0
3959 3960 -3958 0
3958 -3959 0
3958 -3960 0
3962 3963 -3961 0
3961 -3962 0
3961 -3963 0
3965 3966 -3964 0
3964 -3965 0
3964 -3966 0
3968 3969 3970 3971 -3967 0
3967 -3968 0
3967 -3969 0
3967 -3970 0
3967 -3971 0
3973 3974 -3972 0
3972 -3973 0
3972 -3974 0
3976 3977 -3975 0
3975 -3976 0
3975 -3977 0
3979 3980 -3978 0
3978 -3979 0
3978 -3980 0
3982 3983 -3981 0
3981 -3982 0
3981 -3983 0
3985 3986 -3984 0
3984 -3985 0
3984 -3986 0
3988 3989 -3987 0
3987 -3988 0
3987 -3989 0
3991 3992 -3990 0
3990 -3991 0
3990 -3992 0
3994 3995 -3993 0
3993 -3994 0
3993 -3995 0
3997 3998 -3996 0
3996 -3997 0
3996 -3998 0
4000 4001 -3999 0
3999 -4000 0
3999 -4001 0
4003 4004 -4002 0
4002 -4003 0
4002 -4004 0
4006 4007 -4005 0
4005 -4006 0
4005 -4007 0
4009 4010 -4008 0
4008 -4009 0
4008 -4010 0
4012 4013 -4011 0
4011 -4012 0
4011 -4013 0
4015 4016 -4014 0
4014 -4015 0
4014 -4016 0
4018 4019 -4017 0
4017 -4018 0
4017 -4019 0
4021 4022 -4020 0
4020 -4021 0
4020 -4022 0
4024 4025 -4023 0
4023 -4024 0
4023 -4025 0
4027 4028 -4026 0
4026 -4027 0
4026 -4028 0
4030 4031 -4029 0
4029 -4030 0
4029 -4031 0
4033 4034 -4032 0
4032 -4033 0
4032 -4034 0
4036 4037 -4035 0
4035 -4036 0
4035 -4037 0
4039 4040 -4038 0
4038 -4039 0
4038 -4040 0
4042 4043 -4041 0
4041 -4042 0
4041 -4043 0
4045 4046 -4044 0
4044 -4045 0
4044 -4046 0
4048 4049 -4047 0
4047 -4048 0
4047 -4049 0
4051 4052 -4050 0
4050 -4051 0
4050 -4052 0
4054 4055 -4053 0
4053 -4054 0
4053 -4055 0
4057 4058 -4056 0
4056 -4057 0
4056 -4058 0
4060 4061 -4059 0
4059 -4060 0
4059 -4061 0
4063 4064 -4062 0
4062 -4063 0
4062 -4064 0
4074 4075 4076 4077 -4073 0
4073 -4074 0
4073 -4075 0
4073 -4076 0
4073 -4077 0
4079 4080 -4078 0
4078 -4079 0
4078 -4080 0
4082 4083 -4081 0
4081 -4082 0
4081 -4083 0
-4084 4085 4086 0
4084 -4085 0
4084 -4086 0
4088 4089 -4087 0
4087 -4088 0
4087 -4089 0
-4090 4091 4092 0
4090 -4091 0
4090 -4092 0
4094 4095 -4093 0
4093 -4094 0
4093 -4095 0
4097 4098 -4096 0
4096 -4097 0
4096 -4098 0
-4099 4101 4100 0
4099 -4100 0
4099 -4101 0
-4102 4104 4103 0
4102 -4103 0
4102 -4104 0
-4105 4106 4107 0
4105 -4106 0
4105 -4107 0
4109 4110 -4108 0
4108 -4109 0
4108 -4110 0
4112 4113 -4111 0
4111 -4112 0
4111 -4113 0
4115 4116 -4114 0
4114 -4115 0
4114 -4116 0
-4117 4118 4119 0
4117 -4118 0
4117 -4119 0
4121 4122 -4120 0
4120 -4121 0
4120 -4122 0
4124 4126 4125 4127 -4123 0
4123 -4124 0
4123 -4126 0
4123 -4125 0
4123 -4127 0
4129 4130 -4128 0
4128 -4129 0
4128 -4130 0
4132 4133 -4131 0
4131 -4132 0
4131 -4133 0
4135 4136 -4134 0
4134 -4135 0
4134 -4136 0
4138 4139 -4137 0
4137 -4138 0
4137 -4139 0
4141 4142 -4140 0
4140 -4141 0
4140 -4142 0
4144 4145 -4143 0
4143 -4144 0
4143 -4145 0
4147 4148 -4146 0
4146 -4147 0
4146 -4148 0
4150 4151 -4149 0
4149 -4150 0
4149 -4151 0
4153 4154 -4152 0
4152 -4153 0
4152 -4154 0
4156 4157 -4155 0
4155 -4156 0
4155 -4157 0
4159 4160 -4158 0
4158 -4159 0
4158 -4160 0
4162 4163 -4161 0
4161 -4162 0
4161 -4163 0
4165 4166 -4164 0
4164 -4165 0
4164 -4166 0
4168 4169 -4167 0
4167 -4168 0
4167 -4169 0
4171 4172 -4170 0
4170 -4171 0
4170 -4172 0
4174 4175 4176 4177 -4173 0
4173 -4174 0
4173 -4175 0
4173 -4176 0
4173 -4177 0
4179 4180 -4178 0
4178 -4179 0
4178 -4180 0
4182 4183 -4181 0
4181 -4182 0
4181 -4183 0
4185 4186 -4184 0
4184 -4185 0
4184 -4186 0
4188 4189 -4187 0
4187 -4188 0
4187 -4189 0
4191 4192 -4190 0
4190 -4191 0
4190 -4192 0
4194 4195 -4193 0
4193 -4194 0
4193 -4195 0
4197 4198 -4196 0
4196 -4197 0
4196 -4198 0
4200 4201 -4199 0
4199 -4200 0
4199 -4201 0
4203 4204 -4202 0
4202 -4203 0
4202 -4204 0
4206 4207 -4205 0
4205 -4206 0
4205 -4207 0
4209 4210 -4208 0
4208 -4209 0
4208 -4210 0
4212 4213 -4211 0
4211 -4212 0
4211 -4213 0
4215 4216 -4214 0
4214 -4215 0
4214 -4216 0
4218 4219 -4217 0
4217 -4218 0
4217 -4219 0
4221 4222 -4220 0
4220 -4221 0
4220 -4222 0
4224 4225 4226 4227 -4223 0
4223 -4224 0
4223 -4225 0
4223 -4226 0
4223 -4227 0
4229 4230 -4228 0
4228 -4229 0
4228 -4230 0
4232 4233 -4231 0
4231 -4232 0
4231 -4233 0
4235 4236 -4234 0
4234 -4235 0
4234 -4236 0
4238 4239 -4237 0
4237 -4238 0
4237 -4239 0
4241 4242 -4240 0
4240 -4241 0
4240 -4242 0
4244 4245 -4243 0
4243 -4244 0
4243 -4245 0
4247 4248 -4246 0
4246 -4247 0
4246 -4248 0
4250 4251 -4249 0
4249 -4250 0
4249 -4251 0
4253 4254 -4252 0
4252 -4253 0
4252 -4254 0
4256 4257 -4255 0
4255 -4256 0
4255 -4257 0
4259 4260 -4258 0
4258 -4259 0
4258 -4260 0
4262 4263 -4261 0
4261 -4262 0
4261 -4263 0
4265 4266 -4264 0
4264 -4265 0
4264 -4266 0
4268 4269 -4267 0
4267 -4268 0
4267 -4269 0
4271 4272 -4270 0
4270 -4271 0
4270 -4272 0
4274 4275 4276 4277 -4273 0
4273 -4274 0
4273 -4275 0
4273 -4276 0
4273 -4277 0
4279 4280 -4278 0
4278 -4279 0
4278 -4280 0
4282 4283 -4281 0
4281 -4282 0
4281 -4283 0
4285 4286 -4284 0
4284 -4285 0
4284 -4286 0
4288 4289 -4287 0
4287 -4288 0
4287 -4289 0
4291 4292 -4290 0
4290 -4291 0
4290 -4292 0
4294 4295 -4293 0
4293 -4294 0
4293 -4295 0
4297 4298 -4296 0
4296 -4297 0
4296 -4298 0
4300 4301 -4299 0
4299 -4300 0
4299 -4301 0
4303 4304 -4302 0
4302 -4303 0
4302 -4304 0
4306 4307 -4305 0
4305 -4306 0
4305 -4307 0
4309 4310 -4308 0
4308 -4309 0
4308 -4310 0
4312 4313 -4311 0
4311 -4312 0
4311 -4313 0
4315 4316 -4314 0
4314 -4315 0
4314 -4316 0
4318 4319 -4317 0
4317 -4318 0
4317 -4319 0
4321 4322 -4320 0
4320 -4321 0
4320 -4322 0
4324 4325 4326 4327 -4323 0
4323 -4324 0
4323 -4325 0
4323 -4326 0
4323 -4327 0
4329 4330 -4328 0
4328 -4329 0
4328 -4330 0
4332 4333 -4331 0
4331 -4332 0
4331 -4333 0
4335 4336 -4334 0
4334 -4335 0
4334 -4336 0
4338 4339 -4337 0
4337 -4338 0
4337 -4339 0
4341 4342 -4340 0
4340 -4341 0
4340 -4342 0
4344 4345 -4343 0
4343 -4344 0
4343 -4345 0
4347 4348 -4346 0
4346 -4347 0
4346 -4348 0
4350 4351 -4349 0
4349 -4350 0
4349 -4351 0
4353 4354 -4352 0
4352 -4353 0
4352 -4354 0
4356 4357 -4355 0
4355 -4356 0
4355 -4357 0
4359 4360 -4358 0
4358 -4359 0
4358 -4360 0
4362 4363 -4361 0
4361 -4362 0
4361 -4363 0
4365 4366 -4364 0
4364 -4365 0
4364 -4366 0
4368 4369 -4367 0
4367 -4368 0
4367 -4369 0
4371 4372 -4370 0
4370 -4371 0
4370 -4372 0
4374 4375 4376 4377 -4373 0
4373 -4374 0
4373 -4375 0
4373 -4376 0
4373 -4377 0
4379 4380 -4378 0
4378 -4379 0
4378 -4380 0
4382 4383 -4381 0
4381 -4382 0
4381 -4383 0
4385 4386 -4384 0
4384 -4385 0
4384 -4386 0
4388 4389 -4387 0
4387 -4388 0
4387 -4389 0
4391 4392 -4390 0
4390 -4391 0
4390 -4392 0
4394 4395 -4393 0
4393 -4394 0
4393 -4395 0
4397 4398 -4396 0
4396 -4397 0
4396 -4398 0
4400 4401 -4399 0
4399 -4400 0
4399 -4401 0
4403 4404 -4402 0
4402 -4403 0
4402 -4404 0
4406 4407 -4405 0
4405 -4406 0
4405 -4407 0
4409 4410 -4408 0
4408 -4409 0
4408 -4410 0
4412 4413 -4411 0
4411 -4412 0
4411 -4413 0
4415 4416 -4414 0
4414 -4415 0
4414 -4416 0
4418 4419 -4417 0
4417 -4418 0
4417 -4419 0
4421 4422 -4420 0
4420 -4421 0
4420 -4422 0
4424 4425 4426 4427 -4423 0
4423 -4424 0
4423 -4425 0
4423 -4426 0
4423 -4427 0
4429 4430 -4428 0
4428 -4429 0
4428 -4430 0
4432 4433 -4431 0
4431 -4432 0
4431 -4433 0
4435 4436 -4434 0
4434 -4435 0
4434 -4436 0
4438 4439 -4437 0
4437 -4438 0
4437 -4439 0
4441 4442 -4440 0
4440 -4441 0
4440 -4442 0
4444 4445 -4443 0
4443 -4444 0
4443 -4445 0
4447 4448 -4446 0
4446 -4447 0
4446 -4448 0
4450 4451 -4449 0
4449 -4450 0
4449 -4451 0
4453 4454 -4452 0
4452 -4453 0
4452 -4454 0
4456 4457 -4455 0
4455 -4456 0
4455 -4457 0
4459 4460 -4458 0
4458 -4459 0
4458 -4460 0
4462 4463 -4461 0
4461 -4462 0
4461 -4463 0
4465 4466 -4464 0
4464 -4465 0
4464 -4466 0
4468 4469 -4467 0
4467 -4468 0
4467 -4469 0
4471 4472 -4470 0
4470 -4471 0
4470 -4472 0
4474 4475 4476 4477 -4473 0
4473 -4474 0
4473 -4475 0
4473 -4476 0
4473 -4477 0
4479 4480 -4478 0
4478 -4479 0
4478 -4480 0
4482 4483 -4481 0
4481 -4482 0
4481 -4483 0
4485 4486 -4484 0
4484 -4485 0
4484 -4486 0
4488 4489 -4487 0
4487 -4488 0
4487 -4489 0
4491 4492 -4490 0
4490 -4491 0
4490 -4492 0
4494 4495 -4493 0
4493 -4494 0
4493 -4495 0
4497 4498 -4496 0
4496 -4497 0
4496 -4498 0
4500 4501 -4499 0
4499 -4500 0
4499 -4501 0
4503 4504 -4502 0
4502 -4503 0
4502 -4504 0
4506 4507 -4505 0
4505 -4506 0
4505 -4507 0
4509 4510 -4508 0
4508 -4509 0
4508 -4510 0
4512 4513 -4511 0
4511 -4512 0
4511 -4513 0
4515 4516 -4514 0
4514 -4515 0
4514 -4516 0
4518 4519 -4517 0
4517 -4518 0
4517 -4519 0
4521 4522 -4520 0
4520 -4521 0
4520 -4522 0
4524 4525 4526 4527 -4523 0
4523 -4524 0
4523 -4525 0
4523 -4526 0
4523 -4527 0
4529 4530 -4528 0
4528 -4529 0
4528 -4530 0
4532 4533 -4531 0
4531 -4532 0
4531 -4533 0
4535 4536 -4534 0
4534 -4535 0
4534 -4536 0
4538 4539 -4537 0
4537 -4538 0
4537 -4539 0
4541 4542 -4540 0
4540 -4541 0
4540 -4542 0
4544 4545 -4543 0
4543 -4544 0
4543 -4545 0
4547 4548 -4546 0
4546 -4547 0
4546 -4548 0
4550 4551 -4549 0
4549 -4550 0
4549 -4551 0
4553 4554 -4552 0
4552 -4553 0
4552 -4554 0
4556 4557 -4555 0
4555 -4556 0
4555 -4557 0
4559 4560 -4558 0
4558 -4559 0
4558 -4560 0
4562 4563 -4561 0
4561 -4562 0
4561 -4563 0
4565 4566 -4564 0
4564 -4565 0
4564 -4566 0
4568 4569 -4567 0
4567 -4568 0
4567 -4569 0
4571 4572 -4570 0
4570 -4571 0
4570 -4572 0
4574 4575 4576 4577 -4573 0
4573 -4574 0
4573 -4575 0
4573 -4576 0
4573 -4577 0
4579 4580 -4578 0
4578 -4579 0
4578 -4580 0
4582 4583 -4581 0
4581 -4582 0
4581 -4583 0
4585 4586 -4584 0
4584 -4585 0
4584 -4586 0
4588 4589 -4587 0
4587 -4588 0
4587 -4589 0
4591 4592 -4590 0
4590 -4591 0
4590 -4592 0
4594 4595 -4593 0
4593 -4594 0
4593 -4595 0
4597 4598 -4596 0
4596 -4597 0
4596 -4598 0
4600 4601 -4599 0
4599 -4600 0
4599 -4601 0
4603 4604 -4602 0
4602 -4603 0
4602 -4604 0
4606 4607 -4605 0
4605 -4606 0
4605 -4607 0
4609 4610 -4608 0
4608 -4609 0
4608 -4610 0
4612 4613 -4611 0
4611 -4612 0
4611 -4613 0
4615 4616 -4614 0
4614 -4615 0
4614 -4616 0
4618 4619 -4617 0
4617 -4618 0
4617 -4619 0
4621 4622 -4620 0
4620 -4621 0
4620 -4622 0
4624 4625 4626 4627 -4623 0
4623 -4624 0
4623 -4625 0
4623 -4626 0
4623 -4627 0
4629 4630 -4628 0
4628 -4629 0
4628 -4630 0
4632 4633 -4631 0
4631 -4632 0
4631 -4633 0
4635 4636 -4634 0
4634 -4635 0
4634 -4636 0
4638 4639 -4637 0
4637 -4638 0
4637 -4639 0
4641 4642 -4640 0
4640 -4641 0
4640 -4642 0
4644 4645 -4643 0
4643 -4644 0
4643 -4645 0
4647 4648 -4646 0
4646 -4647 0
4646 -4648 0
4650 4651 -4649 0
4649 -4650 0
4649 -4651 0
4653 4654 -4652 0
4652 -4653 0
4652 -4654 0
4656 4657 -4655 0
4655 -4656 0
4655 -4657 0
4659 4660 -4658 0
4658 -4659 0
4658 -4660 0
4662 4663 -4661 0
4661 -4662 0
4661 -4663 0
4665 4666 -4664 0
4664 -4665 0
4664 -4666 0
4668 4669 -4667 0
4667 -4668 0
4667 -4669 0
4671 4672 -4670 0
4670 -4671 0
4670 -4672 0
4674 4675 4676 4677 -4673 0
4673 -4674 0
4673 -4675 0
4673 -4676 0
4673 -4677 0
4679 4680 -4678 0
4678 -4679 0
4678 -4680 0
4682 4683 -4681 0
4681 -4682 0
4681 -4683 0
4685 4686 -4684 0
4684 -4685 0
4684 -4686 0
4688 4689 -4687 0
4687 -4688 0
4687 -4689 0
4691 4692 -4690 0
4690 -4691 0
4690 -4692 0
4694 4695 -4693 0
4693 -4694 0
4693 -4695 0
4697 4698 -4696 0
4696 -4697 0
4696 -4698 0
4700 4701 -4699 0
4699 -4700 0
4699 -4701 0
4703 4704 -4702 0
4702 -4703 0
4702 -4704 0
4706 4707 -4705 0
4705 -4706 0
4705 -4707 0
4709 4710 -4708 0
4708 -4709 0
4708 -4710 0
4712 4713 -4711 0
4711 -4712 0
4711 -4713 0
4715 4716 -4714 0
4714 -4715 0
4714 -4716 0
4718 4719 -4717 0
4717 -4718 0
4717 -4719 0
4721 4722 -4720 0
4720 -4721 0
4720 -4722 0
4724 4725 4726 4727 -4723 0
4723 -4724 0
4723 -4725 0
4723 -4726 0
4723 -4727 0
4729 4730 -4728 0
4728 -4729 0
4728 -4730 0
4732 4733 -4731 0
4731 -4732 0
4731 -4733 0
4735 4736 -4734 0
4734 -4735 0
4734 -4736 0
4738 4739 -4737 0
4737 -4738 0
4737 -4739 0
4741 4742 -4740 0
4740 -4741 0
4740 -4742 0
4744 4745 -4743 0
4743 -4744 0
4743 -4745 0
4747 4748 -4746 0
4746 -4747 0
4746 -4748 0
4750 4751 -4749 0
4749 -4750 0
4749 -4751 0
4753 4754 -4752 0
4752 -4753 0
4752 -4754 0
4756 4757 -4755 0
4755 -4756 0
4755 -4757 0
4759 4760 -4758 0
4758 -4759 0
4758 -4760 0
4762 4763 -4761 0
4761 -4762 0
4761 -4763 0
4765 4766 -4764 0
4764 -4765 0
4764 -4766 0
4768 4769 -4767 0
4767 -4768 0
4767 -4769 0
4771 4772 -4770 0
4770 -4771 0
4770 -4772 0
4774 4775 4776 4777 -4773 0
4773 -4774 0
4773 -4775 0
4773 -4776 0
4773 -4777 0
4779 4780 -4778 0
4778 -4779 0
4778 -4780 0
4782 4783 -4781 0
4781 -4782 0
4781 -4783 0
4785 4786 -4784 0
4784 -4785 0
4784 -4786 0
4788 4789 -4787 0
4787 -4788 0
4787 -4789 0
4791 4792 -4790 0
4790 -4791 0
4790 -4792 0
4794 4795 -4793 0
4793 -4794 0
4793 -4795 0
4797 4798 -4796 0
4796 -4797 0
4796 -4798 0
4800 4801 -4799 0
4799 -4800 0
4799 -4801 0
4803 4804 -4802 0
4802 -4803 0
4802 -4804 0
4806 4807 -4805 0
4805 -4806 0
4805 -4807 0
4809 4810 -4808 0
4808 -4809 0
4808 -4810 0
4812 4813 -4811 0
4811 -4812 0
4811 -4813 0
4815 4816 -4814 0
4814 -4815 0
4814 -4816 0
4818 4819 -4817 0
4817 -4818 0
4817 -4819 0
4821 4822 -4820 0
4820 -4821 0
4820 -4822 0
4824 4825 4826 4827 -4823 0
4823 -4824 0
4823 -4825 0
4823 -4826 0
4823 -4827 0
4829 4830 -4828 0
4828 -4829 0
4828 -4830 0
4832 4833 -4831 0
4831 -4832 0
4831 -4833 0
4835 4836 -4834 0
4834 -4835 0
4834 -4836 0
4838 4839 -4837 0
4837 -4838 0
4837 -4839 0
4841 4842 -4840 0
4840 -4841 0
4840 -4842 0
4844 4845 -4843 0
4843 -4844 0
4843 -4845 0
4847 4848 -4846 0
4846 -4847 0
4846 -4848 0
4850 4851 -4849 0
4849 -4850 0
4849 -4851 0
4853 4854 -4852 0
4852 -4853 0
4852 -4854 0
4856 4857 -4855 0
4855 -4856 0
4855 -4857 0
4859 4860 -4858 0
4858 -4859 0
4858 -4860 0
4862 4863 -4861 0
4861 -4862 0
4861 -4863 0
4865 4866 -4864 0
4864 -4865 0
4864 -4866 0
4868 4869 -4867 0
4867 -4868 0
4867 -4869 0
4871 4872 -4870 0
4870 -4871 0
4870 -4872 0
4874 4875 4876 4877 -4873 0
4873 -4874 0
4873 -4875 0
4873 -4876 0
4873 -4877 0
4879 4880 -4878 0
4878 -4879 0
4878 -4880 0
4882 4883 -4881 0
4881 -4882 0
4881 -4883 0
4885 4886 -4884 0
4884 -4885 0
4884 -4886 0
4888 4889 -4887 0
4887 -4888 0
4887 -4889 0
4891 4892 -4890 0
4890 -4891 0
4890 -4892 0
4894 4895 -4893 0
4893 -4894 0
4893 -4895 0
4897 4898 -4896 0
4896 -4897 0
4896 -4898 0
4900 4901 -4899 0
4899 -4900 0
4899 -4901 0
4903 4904 -4902 0
4902 -4903 0
4902 -4904 0
4906 4907 -4905 0
4905 -4906 0
4905 -4907 0
4909 4910 -4908 0
4908 -4909 0
4908 -4910 0
4912 4913 -4911 0
4911 -4912 0
4911 -4913 0
4915 4916 -4914 0
4914 -4915 0
4914 -4916 0
4918 4919 -4917 0
4917 -4918 0
4917 -4919 0
4921 4922 -4920 0
4920 -4921 0
4920 -4922 0
4924 4925 4926 4927 -4923 0
4923 -4924 0
4923 -4925 0
4923 -4926 0
4923 -4927 0
4929 4930 -4928 0
4928 -4929 0
4928 -4930 0
4932 4933 -4931 0
4931 -4932 0
4931 -4933 0
4935 4936 -4934 0
4934 -4935 0
4934 -4936 0
4938 4939 -4937 0
4937 -4938 0
4937 -4939 0
4941 4942 -4940 0
4940 -4941 0
4940 -4942 0
4944 4945 -4943 0
4943 -4944 0
4943 -4945 0
4947 4948 -4946 0
4946 -4947 0
4946 -4948 0
4950 4951 -4949 0
4949 -4950 0
4949 -4951 0
4953 4954 -4952 0
4952 -4953 0
4952 -4954 0
4956 4957 -4955 0
4955 -4956 0
4955 -4957 0
4959 4960 -4958 0
4958 -4959 0
4958 -4960 0
4962 4963 -4961 0
4961 -4962 0
4961 -4963 0
4965 4966 -4964 0
4964 -4965 0
4964 -4966 0
4968 4969 -4967 0
4967 -4968 0
4967 -4969 0
4971 4972 -4970 0
4970 -4971 0
4970 -4972 0
4974 4975 4976 4977 -4973 0
4973 -4974 0
4973 -4975 0
4973 -4976 0
4973 -4977 0
4979 4980 -4978 0
4978 -4979 0
4978 -4980 0
4982 4983 -4981 0
4981 -4982 0
4981 -4983 0
4985 4986 -4984 0
4984 -4985 0
4984 -4986 0
4988 4989 -4987 0
4987 -4988 0
4987 -4989 0
4991 4992 -4990 0
4990 -4991 0
4990 -4992 0
4994 4995 -4993 0
4993 -4994 0
4993 -4995 0
4997 4998 -4996 0
4996 -4997 0
4996 -4998 0
5000 5001 -4999 0
4999 -5000 0
4999 -5001 0
5003 5004 -5002 0
5002 -5003 0
5002 -5004 0
5006 5007 -5005 0
5005 -5006 0
5005 -5007 0
5009 5010 -5008 0
5008 -5009 0
5008 -5010 0
5012 5013 -5011 0
5011 -5012 0
5011 -5013 0
5015 5016 -5014 0
5014 -5015 0
5014 -5016 0
5018 5019 -5017 0
5017 -5018 0
5017 -5019 0
5021 5022 -5020 0
5020 -5021 0
5020 -5022 0
5024 5025 5026 5027 -5023 0
5023 -5024 0
5023 -5025 0
5023 -5026 0
5023 -5027 0
5029 5030 -5028 0
5028 -5029 0
5028 -5030 0
5032 5033 -5031 0
5031 -5032 0
5031 -5033 0
5035 5036 -5034 0
5034 -5035 0
5034 -5036 0
5038 5039 -5037 0
5037 -5038 0
5037 -5039 0
5041 5042 -5040 0
5040 -5041 0
5040 -5042 0
5044 5045 -5043 0
5043 -5044 0
5043 -5045 0
5047 5048 -5046 0
5046 -5047 0
5046 -5048 0
5050 5051 -5049 0
5049 -5050 0
5049 -5051 0
5053 5054 -5052 0
5052 -5053 0
5052 -5054 0
5056 5057 -5055 0
5055 -5056 0
5055 -5057 0
5059 5060 -5058 0
5058 -5059 0
5058 -5060 0
5062 5063 -5061 0
5061 -5062 0
5061 -5063 0
5065 5066 -5064 0
5064 -5065 0
5064 -5066 0
5068 5069 -5067 0
5067 -5068 0
5067 -5069 0
5071 5072 -5070 0
5070 -5071 0
5070 -5072 0
5074 5075 5076 5077 -5073 0
5073 -5074 0
5073 -5075 0
5073 -5076 0
5073 -5077 0
5079 5080 -5078 0
5078 -5079 0
5078 -5080 0
5082 5083 -5081 0
5081 -5082 0
5081 -5083 0
5085 5086 -5084 0
5084 -5085 0
5084 -5086 0
5088 5089 -5087 0
5087 -5088 0
5087 -5089 0
5091 5092 -5090 0
5090 -5091 0
5090 -5092 0
5094 5095 -5093 0
5093 -5094 0
5093 -5095 0
5097 5098 -5096 0
5096 -5097 0
5096 -5098 0
5100 5101 -5099 0
5099 -5100 0
5099 -5101 0
5103 5104 -5102 0
5102 -5103 0
5102 -5104 0
5106 5107 -5105 0
5105 -5106 0
5105 -5107 0
5109 5110 -5108 0
5108 -5109 0
5108 -5110 0
5112 5113 -5111 0
5111 -5112 0
5111 -5113 0
5115 5116 -5114 0
5114 -5115 0
5114 -5116 0
5118 5119 -5117 0
5117 -5118 0
5117 -5119 0
5121 5122 -5120 0
5120 -5121 0
5120 -5122 0
5124 5125 5126 5127 -5123 0
5123 -5124 0
5123 -5125 0
5123 -5126 0
5123 -5127 0
5129 5130 -5128 0
5128 -5129 0
5128 -5130 0
5132 5133 -5131 0
5131 -5132 0
5131 -5133 0
5135 5136 -5134 0
5134 -5135 0
5134 -5136 0
5138 5139 -5137 0
5137 -5138 0
5137 -5139 0
5141 5142 -5140 0
5140 -5141 0
5140 -5142 0
5144 5145 -5143 0
5143 -5144 0
5143 -5145 0
5147 5148 -5146 0
5146 -5147 0
5146 -5148 0
5150 5151 -5149 0
5149 -5150 0
5149 -5151 0
5153 5154 -5152 0
5152 -5153 0
5152 -5154 0
5156 5157 -5155 0
5155 -5156 0
5155 -5157 0
5159 5160 -5158 0
5158 -5159 0
5158 -5160 0
5162 5163 -5161 0
5161 -5162 0
5161 -5163 0
5165 5166 -5164 0
5164 -5165 0
5164 -5166 0
5168 5169 -5167 0
5167 -5168 0
5167 -5169 0
5171 5172 -5170 0
5170 -5171 0
5170 -5172 0
5174 5175 5176 5177 -5173 0
5173 -5174 0
5173 -5175 0
5173 -5176 0
5173 -5177 0
5179 5180 -5178 0
5178 -5179 0
5178 -5180 0
5182 5183 -5181 0
5181 -5182 0
5181 -5183 0
5185 5186 -5184 0
5184 -5185 0
5184 -5186 0
5188 5189 -5187 0
5187 -5188 0
5187 -5189 0
5191 5192 -5190 0
5190 -5191 0
5190 -5192 0
5194 5195 -5193 0
5193 -5194 0
5193 -5195 0
5197 5198 -5196 0
5196 -5197 0
5196 -5198 0
5200 5201 -5199 0
5199 -5200 0
5199 -5201 0
5203 5204 -5202 0
5202 -5203 0
5202 -5204 0
5206 5207 -5205 0
5205 -5206 0
5205 -5207 0
5209 5210 -5208 0
5208 -5209 0
5208 -5210 0
5212 5213 -5211 0
5211 -5212 0
5211 -5213 0
5215 5216 -5214 0
5214 -5215 0
5214 -5216 0
5218 5219 -5217 0
5217 -5218 0
5217 -5219 0
5221 5222 -5220 0
5220 -5221 0
5220 -5222 0
5224 5225 5226 5227 -5223 0
5223 -5224 0
5223 -5225 0
5223 -5226 0
5223 -5227 0
5229 5230 -5228 0
5228 -5229 0
5228 -5230 0
5232 5233 -5231 0
5231 -5232 0
5231 -5233 0
5235 5236 -5234 0
5234 -5235 0
5234 -5236 0
5238 5239 -5237 0
5237 -5238 0
5237 -5239 0
5241 5242 -5240 0
5240 -5241 0
5240 -5242 0
5244 5245 -5243 0
5243 -5244 0
5243 -5245 0
5247 5248 -5246 0
5246 -5247 0
5246 -5248 0
5250 5251 -5249 0
5249 -5250 0
5249 -5251 0
5253 5254 -5252 0
5252 -5253 0
5252 -5254 0
5256 5257 -5255 0
5255 -5256 0
5255 -5257 0
5259 5260 -5258 0
5258 -5259 0
5258 -5260 0
5262 5263 -5261 0
5261 -5262 0
5261 -5263 0
5265 5266 -5264 0
5264 -5265 0
5264 -5266 0
5268 5269 -5267 0
5267 -5268 0
5267 -5269 0
5271 5272 -5270 0
5270 -5271 0
5270 -5272 0
5274 5275 -5273 0
5273 -5274 0
5273 -5275 0
5277 5278 -5276 0
5276 -5277 0
5276 -5278 0
5280 5281 -5279 0
5279 -5280 0
5279 -5281 0
5283 5284 -5282 0
5282 -5283 0
5282 -5284 0
5286 5287 -5285 0
5285 -5286 0
5285 -5287 0
5289 5290 -5288 0
5288 -5289 0
5288 -5290 0
5292 5293 -5291 0
5291 -5292 0
5291 -5293 0
5295 5296 -5294 0
5294 -5295 0
5294 -5296 0
7010 -1 0
-7011 0
7012 -2 0
7012 -7010 0
7013 -2 -7010 0
7013 -7011 0
-7011 -2 0
7014 -3 0
7014 -7012 0
7015 -3 -7012 0
7015 -7013 0
-3 -7013 0
7016 -4 0
7016 -7014 0
7017 -4 -7014 0
7017 -7015 0
-4 -7015 0
7018 -5 0
7018 -7016 0
7019 -5 -7016 0
7019 -7017 0
-5 -7017 0
7020 -6 0
7020 -7018 0
7021 -6 -7018 0
7021 -7019 0
-6 -7019 0
7022 -7 0
7022 -7020 0
7023 -7 -7020 0
7023 -7021 0
-7 -7021 0
7024 -8 0
7024 -7022 0
7025 -8 -7022 0
7025 -7023 0
-8 -7023 0
7026 -9 0
7026 -7024 0
7027 -9 -7024 0
7027 -7025 0
-9 -7025 0
7028 -10 0
7028 -7026 0
7029 -10 -7026 0
7029 -7027 0
-10 -7027 0
7030 -11 0
7030 -7028 0
7031 -11 -7028 0
7031 -7029 0
-11 -7029 0
7032 -12 0
7032 -7030 0
7033 -12 -7030 0
7033 -7031 0
-12 -7031 0
-13 7034 0
7034 -7032 0
-13 7035 -7032 0
7035 -7033 0
-13 -7033 0
-18 7036 0
7036 -7034 0
-18 7037 -7034 0
7037 -7035 0
-18 -7035 0
-21 7038 0
7038 -7036 0
-21 7039 -7036 0
7039 -7037 0
-21 -7037 0
-24 7040 0
7040 -7038 0
-24 7041 -7038 0
7041 -7039 0
-24 -7039 0
-27 7042 0
7042 -7040 0
-27 7043 -7040 0
7043 -7041 0
-27 -7041 0
-30 7044 0
7044 -7042 0
-30 7045 -7042 0
7045 -7043 0
-30 -7043 0
-33 7046 0
7046 -7044 0
-33 7047 -7044 0
7047 -7045 0
-33 -7045 0
-36 7048 0
7048 -7046 0
-36 7049 -7046 0
7049 -7047 0
-36 -7047 0
-39 7050 0
7050 -7048 0
-39 7051 -7048 0
7051 -7049 0
-39 -7049 0
-42 7052 0
7052 -7050 0
-42 7053 -7050 0
7053 -7051 0
-42 -7051 0
-45 7054 0
7054 -7052 0
-45 7055 -7052 0
7055 -7053 0
-45 -7053 0
-48 7056 0
7056 -7054 0
-48 7057 -7054 0
7057 -7055 0
-48 -7055 0
-51 7058 0
7058 -7056 0
-51 7059 -7056 0
7059 -7057 0
-51 -7057 0
-54 7060 0
7060 -7058 0
-54 7061 -7058 0
7061 -7059 0
-54 -7059 0
-57 7062 0
7062 -7060 0
-57 7063 -7060 0
7063 -7061 0
-57 -7061 0
-60 7064 0
7064 -7062 0
-60 7065 -7062 0
7065 -7063 0
-60 -7063 0
-63 7066 0
7066 -7064 0
-63 7067 -7064 0
7067 -7065 0
-63 -7065 0
-66 7068 0
7068 -7066 0
-66 7069 -7066 0
7069 -7067 0
-66 -7067 0
-69 7070 0
7070 -7068 0
-69 7071 -7068 0
7071 -7069 0
-69 -7069 0
-72 7072 0
7072 -7070 0
-72 7073 -7070 0
7073 -7071 0
-72 -7071 0
-75 7074 0
7074 -7072 0
-75 7075 -7072 0
7075 -7073 0
-75 -7073 0
-80 7076 0
7076 -7074 0
-80 7077 -7074 0
7077 -7075 0
-80 -7075 0
-83 7078 0
7078 -7076 0
-83 7079 -7076 0
7079 -7077 0
-83 -7077 0
-86 7080 0
7080 -7078 0
-86 7081 -7078 0
7081 -7079 0
-86 -7079 0
-89 7082 0
7082 -7080 0
-89 7083 -7080 0
7083 -7081 0
-89 -7081 0
-92 7084 0
7084 -7082 0
-92 7085 -7082 0
7085 -7083 0
-92 -7083 0
-95 7086 0
7086 -7084 0
-95 7087 -7084 0
7087 -7085 0
-95 -7085 0
-98 7088 0
7088 -7086 0
-98 7089 -7086 0
7089 -7087 0
-98 -7087 0
-101 7090 0
7090 -7088 0
-101 7091 -7088 0
7091 -7089 0
-101 -7089 0
-104 7092 0
7092 -7090 0
-104 7093 -7090 0
7093 -7091 0
-104 -7091 0
-107 7094 0
7094 -7092 0
-107 7095 -7092 0
7095 -7093 0
-107 -7093 0
-110 7096 0
7096 -7094 0
-110 7097 -7094 0
7097 -7095 0
-110 -7095 0
-113 7098 0
7098 -7096 0
-113 7099 -7096 0
7099 -7097 0
-113 -7097 0
-116 7100 0
7100 -7098 0
-116 7101 -7098 0
7101 -7099 0
-116 -7099 0
-119 7102 0
7102 -7100 0
-119 7103 -7100 0
7103 -7101 0
-119 -7101 0
-122 7104 0
7104 -7102 0
-122 7105 -7102 0
7105 -7103 0
-122 -7103 0
-125 7106 0
7106 -7104 0
-125 7107 -7104 0
7107 -7105 0
-125 -7105 0
-128 7108 0
7108 -7106 0
-128 7109 -7106 0
7109 -7107 0
-128 -7107 0
-131 7110 0
7110 -7108 0
-131 7111 -7108 0
7111 -7109 0
-131 -7109 0
-134 7112 0
7112 -7110 0
-134 7113 -7110 0
7113 -7111 0
-134 -7111 0
-137 7114 0
7114 -7112 0
-137 7115 -7112 0
7115 -7113 0
-137 -7113 0
-142 7116 0
7116 -7114 0
-142 7117 -7114 0
7117 -7115 0
-142 -7115 0
-145 7118 0
7118 -7116 0
-145 7119 -7116 0
7119 -7117 0
-145 -7117 0
-148 7120 0
7120 -7118 0
-148 7121 -7118 0
7121 -7119 0
-148 -7119 0
-151 7122 0
7122 -7120 0
-151 7123 -7120 0
7123 -7121 0
-151 -7121 0
-154 7124 0
7124 -7122 0
-154 7125 -7122 0
7125 -7123 0
-154 -7123 0
-157 7126 0
7126 -7124 0
-157 7127 -7124 0
7127 -7125 0
-157 -7125 0
-160 7128 0
7128 -7126 0
-160 7129 -7126 0
7129 -7127 0
-160 -7127 0
-163 7130 0
7130 -7128 0
-163 7131 -7128 0
7131 -7129 0
-163 -7129 0
-166 7132 0
7132 -7130 0
-166 7133 -7130 0
7133 -7131 0
-166 -7131 0
-169 7134 0
7134 -7132 0
-169 7135 -7132 0
7135 -7133 0
-169 -7133 0
-172 7136 0
7136 -7134 0
-172 7137 -7134 0
7137 -7135 0
-172 -7135 0
-175 7138 0
7138 -7136 0
-175 7139 -7136 0
7139 -7137 0
-175 -7137 0
-178 7140 0
7140 -7138 0
-178 7141 -7138 0
7141 -7139 0
-178 -7139 0
-181 7142 0
7142 -7140 0
-181 7143 -7140 0
7143 -7141 0
-181 -7141 0
-184 7144 0
7144 -7142 0
-184 7145 -7142 0
7145 -7143 0
-184 -7143 0
-187 7146 0
7146 -7144 0
-187 7147 -7144 0
7147 -7145 0
-187 -7145 0
-190 7148 0
7148 -7146 0
-190 7149 -7146 0
7149 -7147 0
-190 -7147 0
-193 7150 0
7150 -7148 0
-193 7151 -7148 0
7151 -7149 0
-193 -7149 0
-196 7152 0
7152 -7150 0
-196 7153 -7150 0
7153 -7151 0
-196 -7151 0
-199 7154 0
7154 -7152 0
-199 7155 -7152 0
7155 -7153 0
-199 -7153 0
-204 7156 0
7156 -7154 0
-204 7157 -7154 0
7157 -7155 0
-204 -7155 0
-207 7158 0
7158 -7156 0
-207 7159 -7156 0
7159 -7157 0
-207 -7157 0
-210 7160 0
7160 -7158 0
-210 7161 -7158 0
7161 -7159 0
-210 -7159 0
-213 7162 0
7162 -7160 0
-213 7163 -7160 0
7163 -7161 0
-213 -7161 0
-216 7164 0
7164 -7162 0
-216 7165 -7162 0
7165 -7163 0
-216 -7163 0
-219 7166 0
7166 -7164 0
-219 7167 -7164 0
7167 -7165 0
-219 -7165 0
-222 7168 0
7168 -7166 0
-222 7169 -7166 0
7169 -7167 0
-222 -7167 0
-225 7170 0
7170 -7168 0
-225 7171 -7168 0
7171 -7169 0
-225 -7169 0
-228 7172 0
7172 -7170 0
-228 7173 -7170 0
7173 -7171 0
-228 -7171 0
-231 7174 0
7174 -7172 0
-231 7175 -7172 0
7175 -7173 0
-231 -7173 0
-234 7176 0
7176 -7174 0
-234 7177 -7174 0
7177 -7175 0
-234 -7175 0
-237 7178 0
7178 -7176 0
-237 7179 -7176 0
7179 -7177 0
-237 -7177 0
-240 7180 0
7180 -7178 0
-240 7181 -7178 0
7181 -7179 0
-240 -7179 0
-243 7182 0
7182 -7180 0
-243 7183 -7180 0
7183 -7181 0
-243 -7181 0
-246 7184 0
7184 -7182 0
-246 7185 -7182 0
7185 -7183 0
-246 -7183 0
-249 7186 0
7186 -7184 0
-249 7187 -7184 0
7187 -7185 0
-249 -7185 0
-252 7188 0
7188 -7186 0
-252 7189 -7186 0
7189 -7187 0
-252 -7187 0
-255 7190 0
7190 -7188 0
-255 7191 -7188 0
7191 -7189 0
-255 -7189 0
-258 7192 0
7192 -7190 0
-258 7193 -7190 0
7193 -7191 0
-258 -7191 0
-261 7194 0
7194 -7192 0
-261 7195 -7192 0
7195 -7193 0
-261 -7193 0
-266 7196 0
7196 -7194 0
-266 7197 -7194 0
7197 -7195 0
-266 -7195 0
-269 7198 0
7198 -7196 0
-269 7199 -7196 0
7199 -7197 0
-269 -7197 0
-272 7200 0
7200 -7198 0
-272 7201 -7198 0
7201 -7199 0
-272 -7199 0
-275 7202 0
7202 -7200 0
-275 7203 -7200 0
7203 -7201 0
-275 -7201 0
-278 7204 0
7204 -7202 0
-278 7205 -7202 0
7205 -7203 0
-278 -7203 0
-281 7206 0
7206 -7204 0
-281 7207 -7204 0
7207 -7205 0
-281 -7205 0
-284 7208 0
7208 -7206 0
-284 7209 -7206 0
7209 -7207 0
-284 -7207 0
-287 7210 0
7210 -7208 0
-287 7211 -7208 0
7211 -7209 0
-287 -7209 0
-290 7212 0
7212 -7210 0
-290 7213 -7210 0
7213 -7211 0
-290 -7211 0
-293 7214 0
7214 -7212 0
-293 7215 -7212 0
7215 -7213 0
-293 -7213 0
-296 7216 0
7216 -7214 0
-296 7217 -7214 0
7217 -7215 0
-296 -7215 0
-299 7218 0
7218 -7216 0
-299 7219 -7216 0
7219 -7217 0
-299 -7217 0
-302 7220 0
7220 -7218 0
-302 7221 -7218 0
7221 -7219 0
-302 -7219 0
-305 7222 0
7222 -7220 0
-305 7223 -7220 0
7223 -7221 0
-305 -7221 0
-308 7224 0
7224 -7222 0
-308 7225 -7222 0
7225 -7223 0
-308 -7223 0
-311 7226 0
7226 -7224 0
-311 7227 -7224 0
7227 -7225 0
-311 -7225 0
-314 7228 0
7228 -7226 0
-314 7229 -7226 0
7229 -7227 0
-314 -7227 0
-317 7230 0
7230 -7228 0
-317 7231 -7228 0
7231 -7229 0
-317 -7229 0
-320 7232 0
7232 -7230 0
-320 7233 -7230 0
7233 -7231 0
-320 -7231 0
-323 7234 0
7234 -7232 0
-323 7235 -7232 0
7235 -7233 0
-323 -7233 0
-328 7236 0
7236 -7234 0
-328 7237 -7234 0
7237 -7235 0
-328 -7235 0
-331 7238 0
7238 -7236 0
-331 7239 -7236 0
7239 -7237 0
-331 -7237 0
-334 7240 0
7240 -7238 0
-334 7241 -7238 0
7241 -7239 0
-334 -7239 0
-337 7242 0
7242 -7240 0
-337 7243 -7240 0
7243 -7241 0
-337 -7241 0
-340 7244 0
7244 -7242 0
-340 7245 -7242 0
7245 -7243 0
-340 -7243 0
-343 7246 0
7246 -7244 0
-343 7247 -7244 0
7247 -7245 0
-343 -7245 0
-346 7248 0
7248 -7246 0
-346 7249 -7246 0
7249 -7247 0
-346 -7247 0
-349 7250 0
7250 -7248 0
-349 7251 -7248 0
7251 -7249 0
-349 -7249 0
-352 7252 0
7252 -7250 0
-352 7253 -7250 0
7253 -7251 0
-352 -7251 0
-355 7254 0
7254 -7252 0
-355 7255 -7252 0
7255 -7253 0
-355 -7253 0
-358 7256 0
7256 -7254 0
-358 7257 -7254 0
7257 -7255 0
-358 -7255 0
-361 7258 0
7258 -7256 0
-361 7259 -7256 0
7259 -7257 0
-361 -7257 0
-364 7260 0
7260 -7258 0
-364 7261 -7258 0
7261 -7259 0
-364 -7259 0
-367 7262 0
7262 -7260 0
-367 7263 -7260 0
7263 -7261 0
-367 -7261 0
-370 7264 0
7264 -7262 0
-370 7265 -7262 0
7265 -7263 0
-370 -7263 0
-373 7266 0
7266 -7264 0
-373 7267 -7264 0
7267 -7265 0
-373 -7265 0
-376 7268 0
7268 -7266 0
-376 7269 -7266 0
7269 -7267 0
-376 -7267 0
-379 7270 0
7270 -7268 0
-379 7271 -7268 0
7271 -7269 0
-379 -7269 0
-382 7272 0
7272 -7270 0
-382 7273 -7270 0
7273 -7271 0
-382 -7271 0
-385 7274 0
7274 -7272 0
-385 7275 -7272 0
7275 -7273 0
-385 -7273 0
-390 7276 0
7276 -7274 0
-390 7277 -7274 0
7277 -7275 0
-390 -7275 0
-393 7278 0
7278 -7276 0
-393 7279 -7276 0
7279 -7277 0
-393 -7277 0
-396 7280 0
7280 -7278 0
-396 7281 -7278 0
7281 -7279 0
-396 -7279 0
-399 7282 0
7282 -7280 0
-399 7283 -7280 0
7283 -7281 0
-399 -7281 0
-402 7284 0
7284 -7282 0
-402 7285 -7282 0
7285 -7283 0
-402 -7283 0
-405 7286 0
7286 -7284 0
-405 7287 -7284 0
7287 -7285 0
-405 -7285 0
-408 7288 0
7288 -7286 0
-408 7289 -7286 0
7289 -7287 0
-408 -7287 0
-411 7290 0
7290 -7288 0
-411 7291 -7288 0
7291 -7289 0
-411 -7289 0
-414 7292 0
7292 -7290 0
-414 7293 -7290 0
7293 -7291 0
-414 -7291 0
-417 7294 0
7294 -7292 0
-417 7295 -7292 0
7295 -7293 0
-417 -7293 0
-420 7296 0
7296 -7294 0
-420 7297 -7294 0
7297 -7295 0
-420 -7295 0
-423 7298 0
7298 -7296 0
-423 7299 -7296 0
7299 -7297 0
-423 -7297 0
-426 7300 0
7300 -7298 0
-426 7301 -7298 0
7301 -7299 0
-426 -7299 0
-429 7302 0
7302 -7300 0
-429 7303 -7300 0
7303 -7301 0
-429 -7301 0
-432 7304 0
7304 -7302 0
-432 7305 -7302 0
7305 -7303 0
-432 -7303 0
-435 7306 0
7306 -7304 0
-435 7307 -7304 0
7307 -7305 0
-435 -7305 0
-438 7308 0
7308 -7306 0
-438 7309 -7306 0
7309 -7307 0
-438 -7307 0
-441 7310 0
7310 -7308 0
-441 7311 -7308 0
7311 -7309 0
-441 -7309 0
-444 7312 0
7312 -7310 0
-444 7313 -7310 0
7313 -7311 0
-444 -7311 0
-447 7314 0
7314 -7312 0
-447 7315 -7312 0
7315 -7313 0
-447 -7313 0
-452 7316 0
7316 -7314 0
-452 7317 -7314 0
7317 -7315 0
-452 -7315 0
-455 7318 0
7318 -7316 0
-455 7319 -7316 0
7319 -7317 0
-455 -7317 0
-458 7320 0
7320 -7318 0
-458 7321 -7318 0
7321 -7319 0
-458 -7319 0
-461 7322 0
7322 -7320 0
-461 7323 -7320 0
7323 -7321 0
-461 -7321 0
-464 7324 0
7324 -7322 0
-464 7325 -7322 0
7325 -7323 0
-464 -7323 0
-467 7326 0
7326 -7324 0
-467 7327 -7324 0
7327 -7325 0
-467 -7325 0
-470 7328 0
7328 -7326 0
-470 7329 -7326 0
7329 -7327 0
-470 -7327 0
-473 7330 0
7330 -7328 0
-473 7331 -7328 0
7331 -7329 0
-473 -7329 0
-476 7332 0
7332 -7330 0
-476 7333 -7330 0
7333 -7331 0
-476 -7331 0
-479 7334 0
7334 -7332 0
-479 7335 -7332 0
7335 -7333 0
-479 -7333 0
-482 7336 0
7336 -7334 0
-482 7337 -7334 0
7337 -7335 0
-482 -7335 0
-485 7338 0
7338 -7336 0
-485 7339 -7336 0
7339 -7337 0
-485 -7337 0
-488 7340 0
7340 -7338 0
-488 7341 -7338 0
7341 -7339 0
-488 -7339 0
-491 7342 0
7342 -7340 0
-491 7343 -7340 0
7343 -7341 0
-491 -7341 0
-494 7344 0
7344 -7342 0
-494 7345 -7342 0
7345 -7343 0
-494 -7343 0
-497 7346 0
7346 -7344 0
-497 7347 -7344 0
7347 -7345 0
-497 -7345 0
-500 7348 0
7348 -7346 0
-500 7349 -7346 0
7349 -7347 0
-500 -7347 0
-503 7350 0
7350 -7348 0
-503 7351 -7348 0
7351 -7349 0
-503 -7349 0
-506 7352 0
7352 -7350 0
-506 7353 -7350 0
7353 -7351 0
-506 -7351 0
-509 7354 0
7354 -7352 0
-509 7355 -7352 0
7355 -7353 0
-509 -7353 0
-514 7356 0
7356 -7354 0
-514 7357 -7354 0
7357 -7355 0
-514 -7355 0
-517 7358 0
7358 -7356 0
-517 7359 -7356 0
7359 -7357 0
-517 -7357 0
-520 7360 0
7360 -7358 0
-520 7361 -7358 0
7361 -7359 0
-520 -7359 0
-523 7362 0
7362 -7360 0
-523 7363 -7360 0
7363 -7361 0
-523 -7361 0
-526 7364 0
7364 -7362 0
-526 7365 -7362 0
7365 -7363 0
-526 -7363 0
-529 7366 0
7366 -7364 0
-529 7367 -7364 0
7367 -7365 0
-529 -7365 0
-532 7368 0
7368 -7366 0
-532 7369 -7366 0
7369 -7367 0
-532 -7367 0
-535 7370 0
7370 -7368 0
-535 7371 -7368 0
7371 -7369 0
-535 -7369 0
-538 7372 0
7372 -7370 0
-538 7373 -7370 0
7373 -7371 0
-538 -7371 0
-541 7374 0
7374 -7372 0
-541 7375 -7372 0
7375 -7373 0
-541 -7373 0
-544 7376 0
7376 -7374 0
-544 7377 -7374 0
7377 -7375 0
-544 -7375 0
-547 7378 0
7378 -7376 0
-547 7379 -7376 0
7379 -7377 0
-547 -7377 0
-550 7380 0
7380 -7378 0
-550 7381 -7378 0
7381 -7379 0
-550 -7379 0
-553 7382 0
7382 -7380 0
-553 7383 -7380 0
7383 -7381 0
-553 -7381 0
-556 7384 0
7384 -7382 0
-556 7385 -7382 0
7385 -7383 0
-556 -7383 0
-559 7386 0
7386 -7384 0
-559 7387 -7384 0
7387 -7385 0
-559 -7385 0
-562 7388 0
7388 -7386 0
-562 7389 -7386 0
7389 -7387 0
-562 -7387 0
-565 7390 0
7390 -7388 0
-565 7391 -7388 0
7391 -7389 0
-565 -7389 0
-568 7392 0
7392 -7390 0
-568 7393 -7390 0
7393 -7391 0
-568 -7391 0
-571 7394 0
7394 -7392 0
-571 7395 -7392 0
7395 -7393 0
-571 -7393 0
-576 7396 0
7396 -7394 0
-576 7397 -7394 0
7397 -7395 0
-576 -7395 0
-579 7398 0
7398 -7396 0
-579 7399 -7396 0
7399 -7397 0
-579 -7397 0
-582 7400 0
7400 -7398 0
-582 7401 -7398 0
7401 -7399 0
-582 -7399 0
-585 7402 0
7402 -7400 0
-585 7403 -7400 0
7403 -7401 0
-585 -7401 0
-588 7404 0
7404 -7402 0
-588 7405 -7402 0
7405 -7403 0
-588 -7403 0
-591 7406 0
7406 -7404 0
-591 7407 -7404 0
7407 -7405 0
-591 -7405 0
-594 7408 0
7408 -7406 0
-594 7409 -7406 0
7409 -7407 0
-594 -7407 0
-597 7410 0
7410 -7408 0
-597 7411 -7408 0
7411 -7409 0
-597 -7409 0
-600 7412 0
7412 -7410 0
-600 7413 -7410 0
7413 -7411 0
-600 -7411 0
-603 7414 0
7414 -7412 0
-603 7415 -7412 0
7415 -7413 0
-603 -7413 0
-606 7416 0
7416 -7414 0
-606 7417 -7414 0
7417 -7415 0
-606 -7415 0
-609 7418 0
7418 -7416 0
-609 7419 -7416 0
7419 -7417 0
-609 -7417 0
-612 7420 0
7420 -7418 0
-612 7421 -7418 0
7421 -7419 0
-612 -7419 0
-615 7422 0
7422 -7420 0
-615 7423 -7420 0
7423 -7421 0
-615 -7421 0
-618 7424 0
7424 -7422 0
-618 7425 -7422 0
7425 -7423 0
-618 -7423 0
-621 7426 0
7426 -7424 0
-621 7427 -7424 0
7427 -7425 0
-621 -7425 0
-624 7428 0
7428 -7426 0
-624 7429 -7426 0
7429 -7427 0
-624 -7427 0
-627 7430 0
7430 -7428 0
-627 7431 -7428 0
7431 -7429 0
-627 -7429 0
-630 7432 0
7432 -7430 0
-630 7433 -7430 0
7433 -7431 0
-630 -7431 0
-633 7434 0
7434 -7432 0
-633 7435 -7432 0
7435 -7433 0
-633 -7433 0
-638 7436 0
7436 -7434 0
-638 7437 -7434 0
7437 -7435 0
-638 -7435 0
-641 7438 0
7438 -7436 0
-641 7439 -7436 0
7439 -7437 0
-641 -7437 0
-644 7440 0
7440 -7438 0
-644 7441 -7438 0
7441 -7439 0
-644 -7439 0
-647 7442 0
7442 -7440 0
-647 7443 -7440 0
7443 -7441 0
-647 -7441 0
-650 7444 0
7444 -7442 0
-650 7445 -7442 0
7445 -7443 0
-650 -7443 0
-653 7446 0
7446 -7444 0
-653 7447 -7444 0
7447 -7445 0
-653 -7445 0
-656 7448 0
7448 -7446 0
-656 7449 -7446 0
7449 -7447 0
-656 -7447 0
-659 7450 0
7450 -7448 0
-659 7451 -7448 0
7451 -7449 0
-659 -7449 0
-662 7452 0
7452 -7450 0
-662 7453 -7450 0
7453 -7451 0
-662 -7451 0
-665 7454 0
7454 -7452 0
-665 7455 -7452 0
7455 -7453 0
-665 -7453 0
-668 7456 0
7456 -7454 0
-668 7457 -7454 0
7457 -7455 0
-668 -7455 0
-671 7458 0
7458 -7456 0
-671 7459 -7456 0
7459 -7457 0
-671 -7457 0
-674 7460 0
7460 -7458 0
-674 7461 -7458 0
7461 -7459 0
-674 -7459 0
-677 7462 0
7462 -7460 0
-677 7463 -7460 0
7463 -7461 0
-677 -7461 0
-680 7464 0
7464 -7462 0
-680 7465 -7462 0
7465 -7463 0
-680 -7463 0
-683 7466 0
7466 -7464 0
-683 7467 -7464 0
7467 -7465 0
-683 -7465 0
-686 7468 0
7468 -7466 0
-686 7469 -7466 0
7469 -7467 0
-686 -7467 0
-689 7470 0
7470 -7468 0
-689 7471 -7468 0
7471 -7469 0
-689 -7469 0
-692 7472 0
7472 -7470 0
-692 7473 -7470 0
7473 -7471 0
-692 -7471 0
-695 7474 0
7474 -7472 0
-695 7475 -7472 0
7475 -7473 0
-695 -7473 0
-700 7476 0
7476 -7474 0
-700 7477 -7474 0
7477 -7475 0
-700 -7475 0
-703 7478 0
7478 -7476 0
-703 7479 -7476 0
7479 -7477 0
-703 -7477 0
-706 7480 0
7480 -7478 0
-706 7481 -7478 0
7481 -7479 0
-706 -7479 0
-709 7482 0
7482 -7480 0
-709 7483 -7480 0
7483 -7481 0
-709 -7481 0
-712 7484 0
7484 -7482 0
-712 7485 -7482 0
7485 -7483 0
-712 -7483 0
-715 7486 0
7486 -7484 0
-715 7487 -7484 0
7487 -7485 0
-715 -7485 0
-718 7488 0
7488 -7486 0
-718 7489 -7486 0
7489 -7487 0
-718 -7487 0
-721 7490 0
7490 -7488 0
-721 7491 -7488 0
7491 -7489 0
-721 -7489 0
-724 7492 0
7492 -7490 0
-724 7493 -7490 0
7493 -7491 0
-724 -7491 0
-727 7494 0
7494 -7492 0
-727 7495 -7492 0
7495 -7493 0
-727 -7493 0
-730 7496 0
7496 -7494 0
-730 7497 -7494 0
7497 -7495 0
-730 -7495 0
-733 7498 0
7498 -7496 0
-733 7499 -7496 0
7499 -7497 0
-733 -7497 0
-736 7500 0
7500 -7498 0
-736 7501 -7498 0
7501 -7499 0
-736 -7499 0
-739 7502 0
7502 -7500 0
-739 7503 -7500 0
7503 -7501 0
-739 -7501 0
-742 7504 0
7504 -7502 0
-742 7505 -7502 0
7505 -7503 0
-742 -7503 0
-745 7506 0
7506 -7504 0
-745 7507 -7504 0
7507 -7505 0
-745 -7505 0
-748 7508 0
7508 -7506 0
-748 7509 -7506 0
7509 -7507 0
-748 -7507 0
-751 7510 0
7510 -7508 0
-751 7511 -7508 0
7511 -7509 0
-751 -7509 0
-754 7512 0
7512 -7510 0
-754 7513 -7510 0
7513 -7511 0
-754 -7511 0
-757 7514 0
7514 -7512 0
-757 7515 -7512 0
7515 -7513 0
-757 -7513 0
-762 7516 0
7516 -7514 0
-762 7517 -7514 0
7517 -7515 0
-762 -7515 0
-765 7518 0
7518 -7516 0
-765 7519 -7516 0
7519 -7517 0
-765 -7517 0
-768 7520 0
7520 -7518 0
-768 7521 -7518 0
7521 -7519 0
-768 -7519 0
-771 7522 0
7522 -7520 0
-771 7523 -7520 0
7523 -7521 0
-771 -7521 0
-774 7524 0
7524 -7522 0
-774 7525 -7522 0
7525 -7523 0
-774 -7523 0
-777 7526 0
7526 -7524 0
-777 7527 -7524 0
7527 -7525 0
-777 -7525 0
-780 7528 0
7528 -7526 0
-780 7529 -7526 0
7529 -7527 0
-780 -7527 0
-783 7530 0
7530 -7528 0
-783 7531 -7528 0
7531 -7529 0
-783 -7529 0
-786 7532 0
7532 -7530 0
-786 7533 -7530 0
7533 -7531 0
-786 -7531 0
-789 7534 0
7534 -7532 0
-789 7535 -7532 0
7535 -7533 0
-789 -7533 0
-792 7536 0
7536 -7534 0
-792 7537 -7534 0
7537 -7535 0
-792 -7535 0
-795 7538 0
7538 -7536 0
-795 7539 -7536 0
7539 -7537 0
-795 -7537 0
-798 7540 0
7540 -7538 0
-798 7541 -7538 0
7541 -7539 0
-798 -7539 0
-801 7542 0
7542 -7540 0
-801 7543 -7540 0
7543 -7541 0
-801 -7541 0
-804 7544 0
7544 -7542 0
-804 7545 -7542 0
7545 -7543 0
-804 -7543 0
-807 7546 0
7546 -7544 0
-807 7547 -7544 0
7547 -7545 0
-807 -7545 0
-810 7548 0
7548 -7546 0
-810 7549 -7546 0
7549 -7547 0
-810 -7547 0
-813 7550 0
7550 -7548 0
-813 7551 -7548 0
7551 -7549 0
-813 -7549 0
-816 7552 0
7552 -7550 0
-816 7553 -7550 0
7553 -7551 0
-816 -7551 0
-819 7554 0
7554 -7552 0
-819 7555 -7552 0
7555 -7553 0
-819 -7553 0
-824 7556 0
7556 -7554 0
-824 7557 -7554 0
7557 -7555 0
-824 -7555 0
-827 7558 0
7558 -7556 0
-827 7559 -7556 0
7559 -7557 0
-827 -7557 0
-830 7560 0
7560 -7558 0
-830 7561 -7558 0
7561 -7559 0
-830 -7559 0
-833 7562 0
7562 -7560 0
-833 7563 -7560 0
7563 -7561 0
-833 -7561 0
-836 7564 0
7564 -7562 0
-836 7565 -7562 0
7565 -7563 0
-836 -7563 0
-839 7566 0
7566 -7564 0
-839 7567 -7564 0
7567 -7565 0
-839 -7565 0
-842 7568 0
7568 -7566 0
-842 7569 -7566 0
7569 -7567 0
-842 -7567 0
-845 7570 0
7570 -7568 0
-845 7571 -7568 0
7571 -7569 0
-845 -7569 0
-848 7572 0
7572 -7570 0
-848 7573 -7570 0
7573 -7571 0
-848 -7571 0
-851 7574 0
7574 -7572 0
-851 7575 -7572 0
7575 -7573 0
-851 -7573 0
-854 7576 0
7576 -7574 0
-854 7577 -7574 0
7577 -7575 0
-854 -7575 0
-857 7578 0
7578 -7576 0
-857 7579 -7576 0
7579 -7577 0
-857 -7577 0
-860 7580 0
7580 -7578 0
-860 7581 -7578 0
7581 -7579 0
-860 -7579 0
-863 7582 0
7582 -7580 0
-863 7583 -7580 0
7583 -7581 0
-863 -7581 0
-866 7584 0
7584 -7582 0
-866 7585 -7582 0
7585 -7583 0
-866 -7583 0
-869 7586 0
7586 -7584 0
-869 7587 -7584 0
7587 -7585 0
-869 -7585 0
-872 7588 0
7588 -7586 0
-872 7589 -7586 0
7589 -7587 0
-872 -7587 0
-875 7590 0
7590 -7588 0
-875 7591 -7588 0
7591 -7589 0
-875 -7589 0
-878 7592 0
7592 -7590 0
-878 7593 -7590 0
7593 -7591 0
-878 -7591 0
-881 7594 0
7594 -7592 0
-881 7595 -7592 0
7595 -7593 0
-881 -7593 0
-886 7596 0
7596 -7594 0
-886 7597 -7594 0
7597 -7595 0
-886 -7595 0
-889 7598 0
7598 -7596 0
-889 7599 -7596 0
7599 -7597 0
-889 -7597 0
-892 7600 0
7600 -7598 0
-892 7601 -7598 0
7601 -7599 0
-892 -7599 0
-895 7602 0
7602 -7600 0
-895 7603 -7600 0
7603 -7601 0
-895 -7601 0
-898 7604 0
7604 -7602 0
-898 7605 -7602 0
7605 -7603 0
-898 -7603 0
-901 7606 0
7606 -7604 0
-901 7607 -7604 0
7607 -7605 0
-901 -7605 0
-904 7608 0
7608 -7606 0
-904 7609 -7606 0
7609 -7607 0
-904 -7607 0
-907 7610 0
7610 -7608 0
-907 7611 -7608 0
7611 -7609 0
-907 -7609 0
-910 7612 0
7612 -7610 0
-910 7613 -7610 0
7613 -7611 0
-910 -7611 0
-913 7614 0
7614 -7612 0
-913 7615 -7612 0
7615 -7613 0
-913 -7613 0
-916 7616 0
7616 -7614 0
-916 7617 -7614 0
7617 -7615 0
-916 -7615 0
-919 7618 0
7618 -7616 0
-919 7619 -7616 0
7619 -7617 0
-919 -7617 0
-922 7620 0
7620 -7618 0
-922 7621 -7618 0
7621 -7619 0
-922 -7619 0
-925 7622 0
7622 -7620 0
-925 7623 -7620 0
7623 -7621 0
-925 -7621 0
-928 7624 0
7624 -7622 0
-928 7625 -7622 0
7625 -7623 0
-928 -7623 0
-931 7626 0
7626 -7624 0
-931 7627 -7624 0
7627 -7625 0
-931 -7625 0
-934 7628 0
7628 -7626 0
-934 7629 -7626 0
7629 -7627 0
-934 -7627 0
-937 7630 0
7630 -7628 0
-937 7631 -7628 0
7631 -7629 0
-937 -7629 0
-940 7632 0
7632 -7630 0
-940 7633 -7630 0
7633 -7631 0
-940 -7631 0
-943 7634 0
7634 -7632 0
-943 7635 -7632 0
7635 -7633 0
-943 -7633 0
-948 7636 0
7636 -7634 0
-948 7637 -7634 0
7637 -7635 0
-948 -7635 0
-951 7638 0
7638 -7636 0
-951 7639 -7636 0
7639 -7637 0
-951 -7637 0
-954 7640 0
7640 -7638 0
-954 7641 -7638 0
7641 -7639 0
-954 -7639 0
-957 7642 0
7642 -7640 0
-957 7643 -7640 0
7643 -7641 0
-957 -7641 0
-960 7644 0
7644 -7642 0
-960 7645 -7642 0
7645 -7643 0
-960 -7643 0
-963 7646 0
7646 -7644 0
-963 7647 -7644 0
7647 -7645 0
-963 -7645 0
-966 7648 0
7648 -7646 0
-966 7649 -7646 0
7649 -7647 0
-966 -7647 0
-969 7650 0
7650 -7648 0
-969 7651 -7648 0
7651 -7649 0
-969 -7649 0
-972 7652 0
7652 -7650 0
-972 7653 -7650 0
7653 -7651 0
-972 -7651 0
-975 7654 0
7654 -7652 0
-975 7655 -7652 0
7655 -7653 0
-975 -7653 0
-978 7656 0
7656 -7654 0
-978 7657 -7654 0
7657 -7655 0
-978 -7655 0
-981 7658 0
7658 -7656 0
-981 7659 -7656 0
7659 -7657 0
-981 -7657 0
-984 7660 0
7660 -7658 0
-984 7661 -7658 0
7661 -7659 0
-984 -7659 0
-987 7662 0
7662 -7660 0
-987 7663 -7660 0
7663 -7661 0
-987 -7661 0
-990 7664 0
7664 -7662 0
-990 7665 -7662 0
7665 -7663 0
-990 -7663 0
-993 7666 0
7666 -7664 0
-993 7667 -7664 0
7667 -7665 0
-993 -7665 0
-996 7668 0
7668 -7666 0
-996 7669 -7666 0
7669 -7667 0
-996 -7667 0
-999 7670 0
7670 -7668 0
-999 7671 -7668 0
7671 -7669 0
-999 -7669 0
-1002 7672 0
7672 -7670 0
-1002 7673 -7670 0
7673 -7671 0
-1002 -7671 0
-1005 7674 0
7674 -7672 0
-1005 7675 -7672 0
7675 -7673 0
-1005 -7673 0
-1010 7676 0
7676 -7674 0
-1010 7677 -7674 0
7677 -7675 0
-1010 -7675 0
-1013 7678 0
7678 -7676 0
-1013 7679 -7676 0
7679 -7677 0
-1013 -7677 0
-1016 7680 0
7680 -7678 0
-1016 7681 -7678 0
7681 -7679 0
-1016 -7679 0
-1019 7682 0
7682 -7680 0
-1019 7683 -7680 0
7683 -7681 0
-1019 -7681 0
-1022 7684 0
7684 -7682 0
-1022 7685 -7682 0
7685 -7683 0
-1022 -7683 0
-1025 7686 0
7686 -7684 0
-1025 7687 -7684 0
7687 -7685 0
-1025 -7685 0
-1028 7688 0
7688 -7686 0
-1028 7689 -7686 0
7689 -7687 0
-1028 -7687 0
-1031 7690 0
7690 -7688 0
-1031 7691 -7688 0
7691 -7689 0
-1031 -7689 0
-1034 7692 0
7692 -7690 0
-1034 7693 -7690 0
7693 -7691 0
-1034 -7691 0
-1037 7694 0
7694 -7692 0
-1037 7695 -7692 0
7695 -7693 0
-1037 -7693 0
-1040 7696 0
7696 -7694 0
-1040 7697 -7694 0
7697 -7695 0
-1040 -7695 0
-1043 7698 0
7698 -7696 0
-1043 7699 -7696 0
7699 -7697 0
-1043 -7697 0
-1046 7700 0
7700 -7698 0
-1046 7701 -7698 0
7701 -7699 0
-1046 -7699 0
-1049 7702 0
7702 -7700 0
-1049 7703 -7700 0
7703 -7701 0
-1049 -7701 0
-1052 7704 0
7704 -7702 0
-1052 7705 -7702 0
7705 -7703 0
-1052 -7703 0
-1055 7706 0
7706 -7704 0
-1055 7707 -7704 0
7707 -7705 0
-1055 -7705 0
-1058 7708 0
7708 -7706 0
-1058 7709 -7706 0
7709 -7707 0
-1058 -7707 0
-1061 7710 0
7710 -7708 0
-1061 7711 -7708 0
7711 -7709 0
-1061 -7709 0
-1064 7712 0
7712 -7710 0
-1064 7713 -7710 0
7713 -7711 0
-1064 -7711 0
-1067 7714 0
7714 -7712 0
-1067 7715 -7712 0
7715 -7713 0
-1067 -7713 0
-1072 7716 0
7716 -7714 0
-1072 7717 -7714 0
7717 -7715 0
-1072 -7715 0
-1075 7718 0
7718 -7716 0
-1075 7719 -7716 0
7719 -7717 0
-1075 -7717 0
-1078 7720 0
7720 -7718 0
-1078 7721 -7718 0
7721 -7719 0
-1078 -7719 0
-1081 7722 0
7722 -7720 0
-1081 7723 -7720 0
7723 -7721 0
-1081 -7721 0
-1084 7724 0
7724 -7722 0
-1084 7725 -7722 0
7725 -7723 0
-1084 -7723 0
-1087 7726 0
7726 -7724 0
-1087 7727 -7724 0
7727 -7725 0
-1087 -7725 0
-1090 7728 0
7728 -7726 0
-1090 7729 -7726 0
7729 -7727 0
-1090 -7727 0
-1093 7730 0
7730 -7728 0
-1093 7731 -7728 0
7731 -7729 0
-1093 -7729 0
-1096 7732 0
7732 -7730 0
-1096 7733 -7730 0
7733 -7731 0
-1096 -7731 0
-1099 7734 0
7734 -7732 0
-1099 7735 -7732 0
7735 -7733 0
-1099 -7733 0
-1102 7736 0
7736 -7734 0
-1102 7737 -7734 0
7737 -7735 0
-1102 -7735 0
-1105 7738 0
7738 -7736 0
-1105 7739 -7736 0
7739 -7737 0
-1105 -7737 0
-1108 7740 0
7740 -7738 0
-1108 7741 -7738 0
7741 -7739 0
-1108 -7739 0
-1111 7742 0
7742 -7740 0
-1111 7743 -7740 0
7743 -7741 0
-1111 -7741 0
-1114 7744 0
7744 -7742 0
-1114 7745 -7742 0
7745 -7743 0
-1114 -7743 0
-1117 7746 0
7746 -7744 0
-1117 7747 -7744 0
7747 -7745 0
-1117 -7745 0
-1120 7748 0
7748 -7746 0
-1120 7749 -7746 0
7749 -7747 0
-1120 -7747 0
-1123 7750 0
7750 -7748 0
-1123 7751 -7748 0
7751 -7749 0
-1123 -7749 0
-1126 7752 0
7752 -7750 0
-1126 7753 -7750 0
7753 -7751 0
-1126 -7751 0
-1129 7754 0
7754 -7752 0
-1129 7755 -7752 0
7755 -7753 0
-1129 -7753 0
-1134 7756 0
7756 -7754 0
-1134 7757 -7754 0
7757 -7755 0
-1134 -7755 0
-1137 7758 0
7758 -7756 0
-1137 7759 -7756 0
7759 -7757 0
-1137 -7757 0
-1140 7760 0
7760 -7758 0
-1140 7761 -7758 0
7761 -7759 0
-1140 -7759 0
-1143 7762 0
7762 -7760 0
-1143 7763 -7760 0
7763 -7761 0
-1143 -7761 0
-1146 7764 0
7764 -7762 0
-1146 7765 -7762 0
7765 -7763 0
-1146 -7763 0
-1149 7766 0
7766 -7764 0
-1149 7767 -7764 0
7767 -7765 0
-1149 -7765 0
-1152 7768 0
7768 -7766 0
-1152 7769 -7766 0
7769 -7767 0
-1152 -7767 0
-1155 7770 0
7770 -7768 0
-1155 7771 -7768 0
7771 -7769 0
-1155 -7769 0
-1158 7772 0
7772 -7770 0
-1158 7773 -7770 0
7773 -7771 0
-1158 -7771 0
-1161 7774 0
7774 -7772 0
-1161 7775 -7772 0
7775 -7773 0
-1161 -7773 0
-1164 7776 0
7776 -7774 0
-1164 7777 -7774 0
7777 -7775 0
-1164 -7775 0
-1167 7778 0
7778 -7776 0
-1167 7779 -7776 0
7779 -7777 0
-1167 -7777 0
-1170 7780 0
7780 -7778 0
-1170 7781 -7778 0
7781 -7779 0
-1170 -7779 0
-1173 7782 0
7782 -7780 0
-1173 7783 -7780 0
7783 -7781 0
-1173 -7781 0
-1176 7784 0
7784 -7782 0
-1176 7785 -7782 0
7785 -7783 0
-1176 -7783 0
-1179 7786 0
7786 -7784 0
-1179 7787 -7784 0
7787 -7785 0
-1179 -7785 0
-1182 7788 0
7788 -7786 0
-1182 7789 -7786 0
7789 -7787 0
-1182 -7787 0
-1185 7790 0
7790 -7788 0
-1185 7791 -7788 0
7791 -7789 0
-1185 -7789 0
-1188 7792 0
7792 -7790 0
-1188 7793 -7790 0
7793 -7791 0
-1188 -7791 0
-1191 7794 0
7794 -7792 0
-1191 7795 -7792 0
7795 -7793 0
-1191 -7793 0
-1196 7796 0
7796 -7794 0
-1196 7797 -7794 0
7797 -7795 0
-1196 -7795 0
-1199 7798 0
7798 -7796 0
-1199 7799 -7796 0
7799 -7797 0
-1199 -7797 0
-1202 7800 0
7800 -7798 0
-1202 7801 -7798 0
7801 -7799 0
-1202 -7799 0
-1205 7802 0
7802 -7800 0
-1205 7803 -7800 0
7803 -7801 0
-1205 -7801 0
-1208 7804 0
7804 -7802 0
-1208 7805 -7802 0
7805 -7803 0
-1208 -7803 0
-1211 7806 0
7806 -7804 0
-1211 7807 -7804 0
7807 -7805 0
-1211 -7805 0
-1214 7808 0
7808 -7806 0
-1214 7809 -7806 0
7809 -7807 0
-1214 -7807 0
-1217 7810 0
7810 -7808 0
-1217 7811 -7808 0
7811 -7809 0
-1217 -7809 0
-1220 7812 0
7812 -7810 0
-1220 7813 -7810 0
7813 -7811 0
-1220 -7811 0
-1223 7814 0
7814 -7812 0
-1223 7815 -7812 0
7815 -7813 0
-1223 -7813 0
-1226 7816 0
7816 -7814 0
-1226 7817 -7814 0
7817 -7815 0
-1226 -7815 0
-1229 7818 0
7818 -7816 0
-1229 7819 -7816 0
7819 -7817 0
-1229 -7817 0
-1232 7820 0
7820 -7818 0
-1232 7821 -7818 0
7821 -7819 0
-1232 -7819 0
-1235 7822 0
7822 -7820 0
-1235 7823 -7820 0
7823 -7821 0
-1235 -7821 0
-1238 7824 0
7824 -7822 0
-1238 7825 -7822 0
7825 -7823 0
-1238 -7823 0
-1241 7826 0
7826 -7824 0
-1241 7827 -7824 0
7827 -7825 0
-1241 -7825 0
-1244 7828 0
7828 -7826 0
-1244 7829 -7826 0
7829 -7827 0
-1244 -7827 0
-1247 7830 0
7830 -7828 0
-1247 7831 -7828 0
7831 -7829 0
-1247 -7829 0
-1250 7832 0
7832 -7830 0
-1250 7833 -7830 0
7833 -7831 0
-1250 -7831 0
-1253 7834 0
7834 -7832 0
-1253 7835 -7832 0
7835 -7833 0
-1253 -7833 0
-1258 7836 0
7836 -7834 0
-1258 7837 -7834 0
7837 -7835 0
-1258 -7835 0
-1261 7838 0
7838 -7836 0
-1261 7839 -7836 0
7839 -7837 0
-1261 -7837 0
-1264 7840 0
7840 -7838 0
-1264 7841 -7838 0
7841 -7839 0
-1264 -7839 0
-1267 7842 0
7842 -7840 0
-1267 7843 -7840 0
7843 -7841 0
-1267 -7841 0
-1270 7844 0
7844 -7842 0
-1270 7845 -7842 0
7845 -7843 0
-1270 -7843 0
-1273 7846 0
7846 -7844 0
-1273 7847 -7844 0
7847 -7845 0
-1273 -7845 0
-1276 7848 0
7848 -7846 0
-1276 7849 -7846 0
7849 -7847 0
-1276 -7847 0
-1279 7850 0
7850 -7848 0
-1279 7851 -7848 0
7851 -7849 0
-1279 -7849 0
-1282 7852 0
7852 -7850 0
-1282 7853 -7850 0
7853 -7851 0
-1282 -7851 0
-1285 7854 0
7854 -7852 0
-1285 7855 -7852 0
7855 -7853 0
-1285 -7853 0
-1288 7856 0
7856 -7854 0
-1288 7857 -7854 0
7857 -7855 0
-1288 -7855 0
-1291 7858 0
7858 -7856 0
-1291 7859 -7856 0
7859 -7857 0
-1291 -7857 0
-1294 7860 0
7860 -7858 0
-1294 7861 -7858 0
7861 -7859 0
-1294 -7859 0
-1297 7862 0
7862 -7860 0
-1297 7863 -7860 0
7863 -7861 0
-1297 -7861 0
-1300 7864 0
7864 -7862 0
-1300 7865 -7862 0
7865 -7863 0
-1300 -7863 0
-1303 7866 0
7866 -7864 0
-1303 7867 -7864 0
7867 -7865 0
-1303 -7865 0
-1306 7868 0
7868 -7866 0
-1306 7869 -7866 0
7869 -7867 0
-1306 -7867 0
-1309 7870 0
7870 -7868 0
-1309 7871 -7868 0
7871 -7869 0
-1309 -7869 0
-1312 7872 0
7872 -7870 0
-1312 7873 -7870 0
7873 -7871 0
-1312 -7871 0
-1315 7874 0
7874 -7872 0
-1315 7875 -7872 0
7875 -7873 0
-1315 -7873 0
-1320 7876 0
7876 -7874 0
-1320 7877 -7874 0
7877 -7875 0
-1320 -7875 0
-1323 7878 0
7878 -7876 0
-1323 7879 -7876 0
7879 -7877 0
-1323 -7877 0
-1326 7880 0
7880 -7878 0
-1326 7881 -7878 0
7881 -7879 0
-1326 -7879 0
-1329 7882 0
7882 -7880 0
-1329 7883 -7880 0
7883 -7881 0
-1329 -7881 0
-1332 7884 0
7884 -7882 0
-1332 7885 -7882 0
7885 -7883 0
-1332 -7883 0
-1335 7886 0
7886 -7884 0
-1335 7887 -7884 0
7887 -7885 0
-1335 -7885 0
-1338 7888 0
7888 -7886 0
-1338 7889 -7886 0
7889 -7887 0
-1338 -7887 0
-1341 7890 0
7890 -7888 0
-1341 7891 -7888 0
7891 -7889 0
-1341 -7889 0
-1344 7892 0
7892 -7890 0
-1344 7893 -7890 0
7893 -7891 0
-1344 -7891 0
-1347 7894 0
7894 -7892 0
-1347 7895 -7892 0
7895 -7893 0
-1347 -7893 0
-1350 7896 0
7896 -7894 0
-1350 7897 -7894 0
7897 -7895 0
-1350 -7895 0
-1353 7898 0
7898 -7896 0
-1353 7899 -7896 0
7899 -7897 0
-1353 -7897 0
-1356 7900 0
7900 -7898 0
-1356 7901 -7898 0
7901 -7899 0
-1356 -7899 0
-1359 7902 0
7902 -7900 0
-1359 7903 -7900 0
7903 -7901 0
-1359 -7901 0
-1362 7904 0
7904 -7902 0
-1362 7905 -7902 0
7905 -7903 0
-1362 -7903 0
-1365 7906 0
7906 -7904 0
-1365 7907 -7904 0
7907 -7905 0
-1365 -7905 0
-1368 7908 0
7908 -7906 0
-1368 7909 -7906 0
7909 -7907 0
-1368 -7907 0
-1371 7910 0
7910 -7908 0
-1371 7911 -7908 0
7911 -7909 0
-1371 -7909 0
-1374 7912 0
7912 -7910 0
-1374 7913 -7910 0
7913 -7911 0
-1374 -7911 0
-1377 7914 0
7914 -7912 0
-1377 7915 -7912 0
7915 -7913 0
-1377 -7913 0
-1382 7916 0
7916 -7914 0
-1382 7917 -7914 0
7917 -7915 0
-1382 -7915 0
-1385 7918 0
7918 -7916 0
-1385 7919 -7916 0
7919 -7917 0
-1385 -7917 0
-1388 7920 0
7920 -7918 0
-1388 7921 -7918 0
7921 -7919 0
-1388 -7919 0
-1391 7922 0
7922 -7920 0
-1391 7923 -7920 0
7923 -7921 0
-1391 -7921 0
-1394 7924 0
7924 -7922 0
-1394 7925 -7922 0
7925 -7923 0
-1394 -7923 0
-1397 7926 0
7926 -7924 0
-1397 7927 -7924 0
7927 -7925 0
-1397 -7925 0
-1400 7928 0
7928 -7926 0
-1400 7929 -7926 0
7929 -7927 0
-1400 -7927 0
-1403 7930 0
7930 -7928 0
-1403 7931 -7928 0
7931 -7929 0
-1403 -7929 0
-1406 7932 0
7932 -7930 0
-1406 7933 -7930 0
7933 -7931 0
-1406 -7931 0
-1409 7934 0
7934 -7932 0
-1409 7935 -7932 0
7935 -7933 0
-1409 -7933 0
-1412 7936 0
7936 -7934 0
-1412 7937 -7934 0
7937 -7935 0
-1412 -7935 0
-1415 7938 0
7938 -7936 0
-1415 7939 -7936 0
7939 -7937 0
-1415 -7937 0
-1418 7940 0
7940 -7938 0
-1418 7941 -7938 0
7941 -7939 0
-1418 -7939 0
-1421 7942 0
7942 -7940 0
-1421 7943 -7940 0
7943 -7941 0
-1421 -7941 0
-1424 7944 0
7944 -7942 0
-1424 7945 -7942 0
7945 -7943 0
-1424 -7943 0
-1427 7946 0
7946 -7944 0
-1427 7947 -7944 0
7947 -7945 0
-1427 -7945 0
-1430 7948 0
7948 -7946 0
-1430 7949 -7946 0
7949 -7947 0
-1430 -7947 0
-1433 7950 0
7950 -7948 0
-1433 7951 -7948 0
7951 -7949 0
-1433 -7949 0
-1436 7952 0
7952 -7950 0
-1436 7953 -7950 0
7953 -7951 0
-1436 -7951 0
-1439 7954 0
7954 -7952 0
-1439 7955 -7952 0
7955 -7953 0
-1439 -7953 0
-1444 7956 0
7956 -7954 0
-1444 7957 -7954 0
7957 -7955 0
-1444 -7955 0
-1447 7958 0
7958 -7956 0
-1447 7959 -7956 0
7959 -7957 0
-1447 -7957 0
-1450 7960 0
7960 -7958 0
-1450 7961 -7958 0
7961 -7959 0
-1450 -7959 0
-1453 7962 0
7962 -7960 0
-1453 7963 -7960 0
7963 -7961 0
-1453 -7961 0
-1456 7964 0
7964 -7962 0
-1456 7965 -7962 0
7965 -7963 0
-1456 -7963 0
-1459 7966 0
7966 -7964 0
-1459 7967 -7964 0
7967 -7965 0
-1459 -7965 0
-1462 7968 0
7968 -7966 0
-1462 7969 -7966 0
7969 -7967 0
-1462 -7967 0
-1465 7970 0
7970 -7968 0
-1465 7971 -7968 0
7971 -7969 0
-1465 -7969 0
-1468 7972 0
7972 -7970 0
-1468 7973 -7970 0
7973 -7971 0
-1468 -7971 0
-1471 7974 0
7974 -7972 0
-1471 7975 -7972 0
7975 -7973 0
-1471 -7973 0
-1474 7976 0
7976 -7974 0
-1474 7977 -7974 0
7977 -7975 0
-1474 -7975 0
-1477 7978 0
7978 -7976 0
-1477 7979 -7976 0
7979 -7977 0
-1477 -7977 0
-1480 7980 0
7980 -7978 0
-1480 7981 -7978 0
7981 -7979 0
-1480 -7979 0
-1483 7982 0
7982 -7980 0
-1483 7983 -7980 0
7983 -7981 0
-1483 -7981 0
-1486 7984 0
7984 -7982 0
-1486 7985 -7982 0
7985 -7983 0
-1486 -7983 0
-1489 7986 0
7986 -7984 0
-1489 7987 -7984 0
7987 -7985 0
-1489 -7985 0
-1492 7988 0
7988 -7986 0
-1492 7989 -7986 0
7989 -7987 0
-1492 -7987 0
-1495 7990 0
7990 -7988 0
-1495 7991 -7988 0
7991 -7989 0
-1495 -7989 0
-1498 7992 0
7992 -7990 0
-1498 7993 -7990 0
7993 -7991 0
-1498 -7991 0
-1501 7994 0
7994 -7992 0
-1501 7995 -7992 0
7995 -7993 0
-1501 -7993 0
-1506 7996 0
7996 -7994 0
-1506 7997 -7994 0
7997 -7995 0
-1506 -7995 0
-1509 7998 0
7998 -7996 0
-1509 7999 -7996 0
7999 -7997 0
-1509 -7997 0
-1512 8000 0
8000 -7998 0
-1512 8001 -7998 0
8001 -7999 0
-1512 -7999 0
-1515 8002 0
8002 -8000 0
-1515 8003 -8000 0
8003 -8001 0
-1515 -8001 0
-1518 8004 0
8004 -8002 0
-1518 8005 -8002 0
8005 -8003 0
-1518 -8003 0
-1521 8006 0
8006 -8004 0
-1521 8007 -8004 0
8007 -8005 0
-1521 -8005 0
-1524 8008 0
8008 -8006 0
-1524 8009 -8006 0
8009 -8007 0
-1524 -8007 0
-1527 8010 0
8010 -8008 0
-1527 8011 -8008 0
8011 -8009 0
-1527 -8009 0
-1530 8012 0
8012 -8010 0
-1530 8013 -8010 0
8013 -8011 0
-1530 -8011 0
-1533 8014 0
8014 -8012 0
-1533 8015 -8012 0
8015 -8013 0
-1533 -8013 0
-1536 8016 0
8016 -8014 0
-1536 8017 -8014 0
8017 -8015 0
-1536 -8015 0
-1539 8018 0
8018 -8016 0
-1539 8019 -8016 0
8019 -8017 0
-1539 -8017 0
-1542 8020 0
8020 -8018 0
-1542 8021 -8018 0
8021 -8019 0
-1542 -8019 0
-1545 8022 0
8022 -8020 0
-1545 8023 -8020 0
8023 -8021 0
-1545 -8021 0
-1548 8024 0
8024 -8022 0
-1548 8025 -8022 0
8025 -8023 0
-1548 -8023 0
-1551 8026 0
8026 -8024 0
-1551 8027 -8024 0
8027 -8025 0
-1551 -8025 0
-1554 8028 0
8028 -8026 0
-1554 8029 -8026 0
8029 -8027 0
-1554 -8027 0
-1557 8030 0
8030 -8028 0
-1557 8031 -8028 0
8031 -8029 0
-1557 -8029 0
-1560 8032 0
8032 -8030 0
-1560 8033 -8030 0
8033 -8031 0
-1560 -8031 0
-1563 8034 0
8034 -8032 0
-1563 8035 -8032 0
8035 -8033 0
-1563 -8033 0
-1568 8036 0
8036 -8034 0
-1568 8037 -8034 0
8037 -8035 0
-1568 -8035 0
-1571 8038 0
8038 -8036 0
-1571 8039 -8036 0
8039 -8037 0
-1571 -8037 0
-1574 8040 0
8040 -8038 0
-1574 8041 -8038 0
8041 -8039 0
-1574 -8039 0
-1577 8042 0
8042 -8040 0
-1577 8043 -8040 0
8043 -8041 0
-1577 -8041 0
-1580 8044 0
8044 -8042 0
-1580 8045 -8042 0
8045 -8043 0
-1580 -8043 0
-1583 8046 0
8046 -8044 0
-1583 8047 -8044 0
8047 -8045 0
-1583 -8045 0
-1586 8048 0
8048 -8046 0
-1586 8049 -8046 0
8049 -8047 0
-1586 -8047 0
-1589 8050 0
8050 -8048 0
-1589 8051 -8048 0
8051 -8049 0
-1589 -8049 0
-1592 8052 0
8052 -8050 0
-1592 8053 -8050 0
8053 -8051 0
-1592 -8051 0
-1595 8054 0
8054 -8052 0
-1595 8055 -8052 0
8055 -8053 0
-1595 -8053 0
-1598 8056 0
8056 -8054 0
-1598 8057 -8054 0
8057 -8055 0
-1598 -8055 0
-1601 8058 0
8058 -8056 0
-1601 8059 -8056 0
8059 -8057 0
-1601 -8057 0
-1604 8060 0
8060 -8058 0
-1604 8061 -8058 0
8061 -8059 0
-1604 -8059 0
-1607 8062 0
8062 -8060 0
-1607 8063 -8060 0
8063 -8061 0
-1607 -8061 0
-1610 8064 0
8064 -8062 0
-1610 8065 -8062 0
8065 -8063 0
-1610 -8063 0
-1613 8066 0
8066 -8064 0
-1613 8067 -8064 0
8067 -8065 0
-1613 -8065 0
-1616 8068 0
8068 -8066 0
-1616 8069 -8066 0
8069 -8067 0
-1616 -8067 0
-1619 8070 0
8070 -8068 0
-1619 8071 -8068 0
8071 -8069 0
-1619 -8069 0
-1622 8072 0
8072 -8070 0
-1622 8073 -8070 0
8073 -8071 0
-1622 -8071 0
-1625 8074 0
8074 -8072 0
-1625 8075 -8072 0
8075 -8073 0
-1625 -8073 0
-1630 8076 0
8076 -8074 0
-1630 8077 -8074 0
8077 -8075 0
-1630 -8075 0
-1633 8078 0
8078 -8076 0
-1633 8079 -8076 0
8079 -8077 0
-1633 -8077 0
-1636 8080 0
8080 -8078 0
-1636 8081 -8078 0
8081 -8079 0
-1636 -8079 0
-1639 8082 0
8082 -8080 0
-1639 8083 -8080 0
8083 -8081 0
-1639 -8081 0
-1642 8084 0
8084 -8082 0
-1642 8085 -8082 0
8085 -8083 0
-1642 -8083 0
-1645 8086 0
8086 -8084 0
-1645 8087 -8084 0
8087 -8085 0
-1645 -8085 0
-1648 8088 0
8088 -8086 0
-1648 8089 -8086 0
8089 -8087 0
-1648 -8087 0
-1651 8090 0
8090 -8088 0
-1651 8091 -8088 0
8091 -8089 0
-1651 -8089 0
-1654 8092 0
8092 -8090 0
-1654 8093 -8090 0
8093 -8091 0
-1654 -8091 0
-1657 8094 0
8094 -8092 0
-1657 8095 -8092 0
8095 -8093 0
-1657 -8093 0
-1660 8096 0
8096 -8094 0
-1660 8097 -8094 0
8097 -8095 0
-1660 -8095 0
-1663 8098 0
8098 -8096 0
-1663 8099 -8096 0
8099 -8097 0
-1663 -8097 0
-1666 8100 0
8100 -8098 0
-1666 8101 -8098 0
8101 -8099 0
-1666 -8099 0
-1669 8102 0
8102 -8100 0
-1669 8103 -8100 0
8103 -8101 0
-1669 -8101 0
-1672 8104 0
8104 -8102 0
-1672 8105 -8102 0
8105 -8103 0
-1672 -8103 0
-1675 8106 0
8106 -8104 0
-1675 8107 -8104 0
8107 -8105 0
-1675 -8105 0
-1678 8108 0
8108 -8106 0
-1678 8109 -8106 0
8109 -8107 0
-1678 -8107 0
-1681 8110 0
8110 -8108 0
-1681 8111 -8108 0
8111 -8109 0
-1681 -8109 0
-1684 8112 0
8112 -8110 0
-1684 8113 -8110 0
8113 -8111 0
-1684 -8111 0
-1687 8114 0
8114 -8112 0
-1687 8115 -8112 0
8115 -8113 0
-1687 -8113 0
-1692 8116 0
8116 -8114 0
-1692 8117 -8114 0
8117 -8115 0
-1692 -8115 0
-1695 8118 0
8118 -8116 0
-1695 8119 -8116 0
8119 -8117 0
-1695 -8117 0
-1698 8120 0
8120 -8118 0
-1698 8121 -8118 0
8121 -8119 0
-1698 -8119 0
-1701 8122 0
8122 -8120 0
-1701 8123 -8120 0
8123 -8121 0
-1701 -8121 0
-1704 8124 0
8124 -8122 0
-1704 8125 -8122 0
8125 -8123 0
-1704 -8123 0
-1707 8126 0
8126 -8124 0
-1707 8127 -8124 0
8127 -8125 0
-1707 -8125 0
-1710 8128 0
8128 -8126 0
-1710 8129 -8126 0
8129 -8127 0
-1710 -8127 0
-1713 8130 0
8130 -8128 0
-1713 8131 -8128 0
8131 -8129 0
-1713 -8129 0
-1716 8132 0
8132 -8130 0
-1716 8133 -8130 0
8133 -8131 0
-1716 -8131 0
-1719 8134 0
8134 -8132 0
-1719 8135 -8132 0
8135 -8133 0
-1719 -8133 0
-1722 8136 0
8136 -8134 0
-1722 8137 -8134 0
8137 -8135 0
-1722 -8135 0
-1725 8138 0
8138 -8136 0
-1725 8139 -8136 0
8139 -8137 0
-1725 -8137 0
-1728 8140 0
8140 -8138 0
-1728 8141 -8138 0
8141 -8139 0
-1728 -8139 0
-1731 8142 0
8142 -8140 0
-1731 8143 -8140 0
8143 -8141 0
-1731 -8141 0
-1734 8144 0
8144 -8142 0
-1734 8145 -8142 0
8145 -8143 0
-1734 -8143 0
-1737 8146 0
8146 -8144 0
-1737 8147 -8144 0
8147 -8145 0
-1737 -8145 0
-1740 8148 0
8148 -8146 0
-1740 8149 -8146 0
8149 -8147 0
-1740 -8147 0
-1743 8150 0
8150 -8148 0
-1743 8151 -8148 0
8151 -8149 0
-1743 -8149 0
-1746 8152 0
8152 -8150 0
-1746 8153 -8150 0
8153 -8151 0
-1746 -8151 0
-1749 8154 0
8154 -8152 0
-1749 8155 -8152 0
8155 -8153 0
-1749 -8153 0
-1754 8156 0
8156 -8154 0
-1754 8157 -8154 0
8157 -8155 0
-1754 -8155 0
-1757 8158 0
8158 -8156 0
-1757 8159 -8156 0
8159 -8157 0
-1757 -8157 0
-1760 8160 0
8160 -8158 0
-1760 8161 -8158 0
8161 -8159 0
-1760 -8159 0
-1763 8162 0
8162 -8160 0
-1763 8163 -8160 0
8163 -8161 0
-1763 -8161 0
-1766 8164 0
8164 -8162 0
-1766 8165 -8162 0
8165 -8163 0
-1766 -8163 0
-1769 8166 0
8166 -8164 0
-1769 8167 -8164 0
8167 -8165 0
-1769 -8165 0
-1772 8168 0
8168 -8166 0
-1772 8169 -8166 0
8169 -8167 0
-1772 -8167 0
-1775 8170 0
8170 -8168 0
-1775 8171 -8168 0
8171 -8169 0
-1775 -8169 0
-1778 8172 0
8172 -8170 0
-1778 8173 -8170 0
8173 -8171 0
-1778 -8171 0
-1781 8174 0
8174 -8172 0
-1781 8175 -8172 0
8175 -8173 0
-1781 -8173 0
-1784 8176 0
8176 -8174 0
-1784 8177 -8174 0
8177 -8175 0
-1784 -8175 0
-1787 8178 0
8178 -8176 0
-1787 8179 -8176 0
8179 -8177 0
-1787 -8177 0
-1790 8180 0
8180 -8178 0
-1790 8181 -8178 0
8181 -8179 0
-1790 -8179 0
-1793 8182 0
8182 -8180 0
-1793 8183 -8180 0
8183 -8181 0
-1793 -8181 0
-1796 8184 0
8184 -8182 0
-1796 8185 -8182 0
8185 -8183 0
-1796 -8183 0
-1799 8186 0
8186 -8184 0
-1799 8187 -8184 0
8187 -8185 0
-1799 -8185 0
-1802 8188 0
8188 -8186 0
-1802 8189 -8186 0
8189 -8187 0
-1802 -8187 0
-1805 8190 0
8190 -8188 0
-1805 8191 -8188 0
8191 -8189 0
-1805 -8189 0
-1808 8192 0
8192 -8190 0
-1808 8193 -8190 0
8193 -8191 0
-1808 -8191 0
-1811 8194 0
8194 -8192 0
-1811 8195 -8192 0
8195 -8193 0
-1811 -8193 0
-1816 8196 0
8196 -8194 0
-1816 8197 -8194 0
8197 -8195 0
-1816 -8195 0
-1819 8198 0
8198 -8196 0
-1819 8199 -8196 0
8199 -8197 0
-1819 -8197 0
-1822 8200 0
8200 -8198 0
-1822 8201 -8198 0
8201 -8199 0
-1822 -8199 0
-1825 8202 0
8202 -8200 0
-1825 8203 -8200 0
8203 -8201 0
-1825 -8201 0
-1828 8204 0
8204 -8202 0
-1828 8205 -8202 0
8205 -8203 0
-1828 -8203 0
-1831 8206 0
8206 -8204 0
-1831 8207 -8204 0
8207 -8205 0
-1831 -8205 0
-1834 8208 0
8208 -8206 0
-1834 8209 -8206 0
8209 -8207 0
-1834 -8207 0
-1837 8210 0
8210 -8208 0
-1837 8211 -8208 0
8211 -8209 0
-1837 -8209 0
-1840 8212 0
8212 -8210 0
-1840 8213 -8210 0
8213 -8211 0
-1840 -8211 0
-1843 8214 0
8214 -8212 0
-1843 8215 -8212 0
8215 -8213 0
-1843 -8213 0
-1846 8216 0
8216 -8214 0
-1846 8217 -8214 0
8217 -8215 0
-1846 -8215 0
-1849 8218 0
8218 -8216 0
-1849 8219 -8216 0
8219 -8217 0
-1849 -8217 0
-1852 8220 0
8220 -8218 0
-1852 8221 -8218 0
8221 -8219 0
-1852 -8219 0
-1855 8222 0
8222 -8220 0
-1855 8223 -8220 0
8223 -8221 0
-1855 -8221 0
-1858 8224 0
8224 -8222 0
-1858 8225 -8222 0
8225 -8223 0
-1858 -8223 0
-1861 8226 0
8226 -8224 0
-1861 8227 -8224 0
8227 -8225 0
-1861 -8225 0
-1864 8228 0
8228 -8226 0
-1864 8229 -8226 0
8229 -8227 0
-1864 -8227 0
-1867 8230 0
8230 -8228 0
-1867 8231 -8228 0
8231 -8229 0
-1867 -8229 0
-1870 8232 0
8232 -8230 0
-1870 8233 -8230 0
8233 -8231 0
-1870 -8231 0
-1873 8234 0
8234 -8232 0
-1873 8235 -8232 0
8235 -8233 0
-1873 -8233 0
-1878 8236 0
8236 -8234 0
-1878 8237 -8234 0
8237 -8235 0
-1878 -8235 0
-1881 8238 0
8238 -8236 0
-1881 8239 -8236 0
8239 -8237 0
-1881 -8237 0
-1884 8240 0
8240 -8238 0
-1884 8241 -8238 0
8241 -8239 0
-1884 -8239 0
-1887 8242 0
8242 -8240 0
-1887 8243 -8240 0
8243 -8241 0
-1887 -8241 0
-1890 8244 0
8244 -8242 0
-1890 8245 -8242 0
8245 -8243 0
-1890 -8243 0
-1893 8246 0
8246 -8244 0
-1893 8247 -8244 0
8247 -8245 0
-1893 -8245 0
-1896 8248 0
8248 -8246 0
-1896 8249 -8246 0
8249 -8247 0
-1896 -8247 0
-1899 8250 0
8250 -8248 0
-1899 8251 -8248 0
8251 -8249 0
-1899 -8249 0
-1902 8252 0
8252 -8250 0
-1902 8253 -8250 0
8253 -8251 0
-1902 -8251 0
-1905 8254 0
8254 -8252 0
-1905 8255 -8252 0
8255 -8253 0
-1905 -8253 0
-1908 8256 0
8256 -8254 0
-1908 8257 -8254 0
8257 -8255 0
-1908 -8255 0
-1911 8258 0
8258 -8256 0
-1911 8259 -8256 0
8259 -8257 0
-1911 -8257 0
-1914 8260 0
8260 -8258 0
-1914 8261 -8258 0
8261 -8259 0
-1914 -8259 0
-1917 8262 0
8262 -8260 0
-1917 8263 -8260 0
8263 -8261 0
-1917 -8261 0
-1920 8264 0
8264 -8262 0
-1920 8265 -8262 0
8265 -8263 0
-1920 -8263 0
-1923 8266 0
8266 -8264 0
-1923 8267 -8264 0
8267 -8265 0
-1923 -8265 0
-1926 8268 0
8268 -8266 0
-1926 8269 -8266 0
8269 -8267 0
-1926 -8267 0
-1929 8270 0
8270 -8268 0
-1929 8271 -8268 0
8271 -8269 0
-1929 -8269 0
-1932 8272 0
8272 -8270 0
-1932 8273 -8270 0
8273 -8271 0
-1932 -8271 0
-1935 8274 0
8274 -8272 0
-1935 8275 -8272 0
8275 -8273 0
-1935 -8273 0
-1940 8276 0
8276 -8274 0
-1940 8277 -8274 0
8277 -8275 0
-1940 -8275 0
-1943 8278 0
8278 -8276 0
-1943 8279 -8276 0
8279 -8277 0
-1943 -8277 0
-1946 8280 0
8280 -8278 0
-1946 8281 -8278 0
8281 -8279 0
-1946 -8279 0
-1949 8282 0
8282 -8280 0
-1949 8283 -8280 0
8283 -8281 0
-1949 -8281 0
-1952 8284 0
8284 -8282 0
-1952 8285 -8282 0
8285 -8283 0
-1952 -8283 0
-1955 8286 0
8286 -8284 0
-1955 8287 -8284 0
8287 -8285 0
-1955 -8285 0
-1958 8288 0
8288 -8286 0
-1958 8289 -8286 0
8289 -8287 0
-1958 -8287 0
-1961 8290 0
8290 -8288 0
-1961 8291 -8288 0
8291 -8289 0
-1961 -8289 0
-1964 8292 0
8292 -8290 0
-1964 8293 -8290 0
8293 -8291 0
-1964 -8291 0
-1967 8294 0
8294 -8292 0
-1967 8295 -8292 0
8295 -8293 0
-1967 -8293 0
-1970 8296 0
8296 -8294 0
-1970 8297 -8294 0
8297 -8295 0
-1970 -8295 0
-1973 8298 0
8298 -8296 0
-1973 8299 -8296 0
8299 -8297 0
-1973 -8297 0
-1976 8300 0
8300 -8298 0
-1976 8301 -8298 0
8301 -8299 0
-1976 -8299 0
-1979 8302 0
8302 -8300 0
-1979 8303 -8300 0
8303 -8301 0
-1979 -8301 0
-1982 8304 0
8304 -8302 0
-1982 8305 -8302 0
8305 -8303 0
-1982 -8303 0
-1985 8306 0
8306 -8304 0
-1985 8307 -8304 0
8307 -8305 0
-1985 -8305 0
-1988 8308 0
8308 -8306 0
-1988 8309 -8306 0
8309 -8307 0
-1988 -8307 0
-1991 8310 0
8310 -8308 0
-1991 8311 -8308 0
8311 -8309 0
-1991 -8309 0
-1994 8312 0
8312 -8310 0
-1994 8313 -8310 0
8313 -8311 0
-1994 -8311 0
-1997 8314 0
8314 -8312 0
-1997 8315 -8312 0
8315 -8313 0
-1997 -8313 0
-2000 8316 0
8316 -8314 0
-2000 8317 -8314 0
8317 -8315 0
-2000 -8315 0
-2003 8318 0
8318 -8316 0
-2003 8319 -8316 0
8319 -8317 0
-2003 -8317 0
-2006 8320 0
8320 -8318 0
-2006 8321 -8318 0
8321 -8319 0
-2006 -8319 0
-2009 8322 0
8322 -8320 0
-2009 8323 -8320 0
8323 -8321 0
-2009 -8321 0
-2012 8324 0
8324 -8322 0
-2012 8325 -8322 0
8325 -8323 0
-2012 -8323 0
-2015 8326 0
8326 -8324 0
-2015 8327 -8324 0
8327 -8325 0
-2015 -8325 0
-2018 8328 0
8328 -8326 0
-2018 8329 -8326 0
8329 -8327 0
-2018 -8327 0
-2021 8330 0
8330 -8328 0
-2021 8331 -8328 0
8331 -8329 0
-2021 -8329 0
-2024 8332 0
8332 -8330 0
-2024 8333 -8330 0
8333 -8331 0
-2024 -8331 0
-2027 8334 0
8334 -8332 0
-2027 8335 -8332 0
8335 -8333 0
-2027 -8333 0
-2030 8336 0
8336 -8334 0
-2030 8337 -8334 0
8337 -8335 0
-2030 -8335 0
8338 -2033 0
8338 -8336 0
8339 -2033 -8336 0
8339 -8337 0
-2033 -8337 0
8340 -2034 0
8340 -8338 0
8341 -2034 -8338 0
8341 -8339 0
-2034 -8339 0
8342 -2035 0
8342 -8340 0
8343 -2035 -8340 0
8343 -8341 0
-2035 -8341 0
8344 -2036 0
8344 -8342 0
8345 -2036 -8342 0
8345 -8343 0
-2036 -8343 0
8346 -2037 0
8346 -8344 0
8347 -2037 -8344 0
8347 -8345 0
-2037 -8345 0
8348 -2038 0
8348 -8346 0
8349 -2038 -8346 0
8349 -8347 0
-2038 -8347 0
8350 -2039 0
8350 -8348 0
8351 -2039 -8348 0
8351 -8349 0
-2039 -8349 0
8352 -2040 0
8352 -8350 0
8353 -2040 -8350 0
8353 -8351 0
-2040 -8351 0
8354 -2041 0
8354 -8352 0
8355 -2041 -8352 0
8355 -8353 0
-2041 -8353 0
8356 -2042 0
8356 -8354 0
8357 -2042 -8354 0
8357 -8355 0
-2042 -8355 0
8358 -2043 0
8358 -8356 0
8359 -2043 -8356 0
8359 -8357 0
-2043 -8357 0
8360 -2044 0
8360 -8358 0
8361 -2044 -8358 0
8361 -8359 0
-2044 -8359 0
-2045 8362 0
8362 -8360 0
-2045 8363 -8360 0
8363 -8361 0
-2045 -8361 0
-2050 8364 0
8364 -8362 0
-2050 8365 -8362 0
8365 -8363 0
-2050 -8363 0
-2053 8366 0
8366 -8364 0
-2053 8367 -8364 0
8367 -8365 0
-2053 -8365 0
-2056 8368 0
8368 -8366 0
-2056 8369 -8366 0
8369 -8367 0
-2056 -8367 0
-2059 8370 0
8370 -8368 0
-2059 8371 -8368 0
8371 -8369 0
-2059 -8369 0
-2062 8372 0
8372 -8370 0
-2062 8373 -8370 0
8373 -8371 0
-2062 -8371 0
-2065 8374 0
8374 -8372 0
-2065 8375 -8372 0
8375 -8373 0
-2065 -8373 0
-2068 8376 0
8376 -8374 0
-2068 8377 -8374 0
8377 -8375 0
-2068 -8375 0
-2071 8378 0
8378 -8376 0
-2071 8379 -8376 0
8379 -8377 0
-2071 -8377 0
-2074 8380 0
8380 -8378 0
-2074 8381 -8378 0
8381 -8379 0
-2074 -8379 0
-2077 8382 0
8382 -8380 0
-2077 8383 -8380 0
8383 -8381 0
-2077 -8381 0
-2080 8384 0
8384 -8382 0
-2080 8385 -8382 0
8385 -8383 0
-2080 -8383 0
-2083 8386 0
8386 -8384 0
-2083 8387 -8384 0
8387 -8385 0
-2083 -8385 0
-2086 8388 0
8388 -8386 0
-2086 8389 -8386 0
8389 -8387 0
-2086 -8387 0
-2089 8390 0
8390 -8388 0
-2089 8391 -8388 0
8391 -8389 0
-2089 -8389 0
-2092 8392 0
8392 -8390 0
-2092 8393 -8390 0
8393 -8391 0
-2092 -8391 0
-2095 8394 0
8394 -8392 0
-2095 8395 -8392 0
8395 -8393 0
-2095 -8393 0
-2098 8396 0
8396 -8394 0
-2098 8397 -8394 0
8397 -8395 0
-2098 -8395 0
-2101 8398 0
8398 -8396 0
-2101 8399 -8396 0
8399 -8397 0
-2101 -8397 0
-2104 8400 0
8400 -8398 0
-2104 8401 -8398 0
8401 -8399 0
-2104 -8399 0
-2107 8402 0
8402 -8400 0
-2107 8403 -8400 0
8403 -8401 0
-2107 -8401 0
-2112 8404 0
8404 -8402 0
-2112 8405 -8402 0
8405 -8403 0
-2112 -8403 0
-2115 8406 0
8406 -8404 0
-2115 8407 -8404 0
8407 -8405 0
-2115 -8405 0
-2118 8408 0
8408 -8406 0
-2118 8409 -8406 0
8409 -8407 0
-2118 -8407 0
-2121 8410 0
8410 -8408 0
-2121 8411 -8408 0
8411 -8409 0
-2121 -8409 0
-2124 8412 0
8412 -8410 0
-2124 8413 -8410 0
8413 -8411 0
-2124 -8411 0
-2127 8414 0
8414 -8412 0
-2127 8415 -8412 0
8415 -8413 0
-2127 -8413 0
-2130 8416 0
8416 -8414 0
-2130 8417 -8414 0
8417 -8415 0
-2130 -8415 0
-2133 8418 0
8418 -8416 0
-2133 8419 -8416 0
8419 -8417 0
-2133 -8417 0
-2136 8420 0
8420 -8418 0
-2136 8421 -8418 0
8421 -8419 0
-2136 -8419 0
-2139 8422 0
8422 -8420 0
-2139 8423 -8420 0
8423 -8421 0
-2139 -8421 0
-2142 8424 0
8424 -8422 0
-2142 8425 -8422 0
8425 -8423 0
-2142 -8423 0
-2145 8426 0
8426 -8424 0
-2145 8427 -8424 0
8427 -8425 0
-2145 -8425 0
-2148 8428 0
8428 -8426 0
-2148 8429 -8426 0
8429 -8427 0
-2148 -8427 0
-2151 8430 0
8430 -8428 0
-2151 8431 -8428 0
8431 -8429 0
-2151 -8429 0
-2154 8432 0
8432 -8430 0
-2154 8433 -8430 0
8433 -8431 0
-2154 -8431 0
-2157 8434 0
8434 -8432 0
-2157 8435 -8432 0
8435 -8433 0
-2157 -8433 0
-2160 8436 0
8436 -8434 0
-2160 8437 -8434 0
8437 -8435 0
-2160 -8435 0
-2163 8438 0
8438 -8436 0
-2163 8439 -8436 0
8439 -8437 0
-2163 -8437 0
-2166 8440 0
8440 -8438 0
-2166 8441 -8438 0
8441 -8439 0
-2166 -8439 0
-2169 8442 0
8442 -8440 0
-2169 8443 -8440 0
8443 -8441 0
-2169 -8441 0
-2174 8444 0
8444 -8442 0
-2174 8445 -8442 0
8445 -8443 0
-2174 -8443 0
-2177 8446 0
8446 -8444 0
-2177 8447 -8444 0
8447 -8445 0
-2177 -8445 0
-2180 8448 0
8448 -8446 0
-2180 8449 -8446 0
8449 -8447 0
-2180 -8447 0
-2183 8450 0
8450 -8448 0
-2183 8451 -8448 0
8451 -8449 0
-2183 -8449 0
-2186 8452 0
8452 -8450 0
-2186 8453 -8450 0
8453 -8451 0
-2186 -8451 0
-2189 8454 0
8454 -8452 0
-2189 8455 -8452 0
8455 -8453 0
-2189 -8453 0
-2192 8456 0
8456 -8454 0
-2192 8457 -8454 0
8457 -8455 0
-2192 -8455 0
-2195 8458 0
8458 -8456 0
-2195 8459 -8456 0
8459 -8457 0
-2195 -8457 0
-2198 8460 0
8460 -8458 0
-2198 8461 -8458 0
8461 -8459 0
-2198 -8459 0
-2201 8462 0
8462 -8460 0
-2201 8463 -8460 0
8463 -8461 0
-2201 -8461 0
-2204 8464 0
8464 -8462 0
-2204 8465 -8462 0
8465 -8463 0
-2204 -8463 0
-2207 8466 0
8466 -8464 0
-2207 8467 -8464 0
8467 -8465 0
-2207 -8465 0
-2210 8468 0
8468 -8466 0
-2210 8469 -8466 0
8469 -8467 0
-2210 -8467 0
-2213 8470 0
8470 -8468 0
-2213 8471 -8468 0
8471 -8469 0
-2213 -8469 0
-2216 8472 0
8472 -8470 0
-2216 8473 -8470 0
8473 -8471 0
-2216 -8471 0
-2219 8474 0
8474 -8472 0
-2219 8475 -8472 0
8475 -8473 0
-2219 -8473 0
-2222 8476 0
8476 -8474 0
-2222 8477 -8474 0
8477 -8475 0
-2222 -8475 0
-2225 8478 0
8478 -8476 0
-2225 8479 -8476 0
8479 -8477 0
-2225 -8477 0
-2228 8480 0
8480 -8478 0
-2228 8481 -8478 0
8481 -8479 0
-2228 -8479 0
-2231 8482 0
8482 -8480 0
-2231 8483 -8480 0
8483 -8481 0
-2231 -8481 0
-2236 8484 0
8484 -8482 0
-2236 8485 -8482 0
8485 -8483 0
-2236 -8483 0
-2239 8486 0
8486 -8484 0
-2239 8487 -8484 0
8487 -8485 0
-2239 -8485 0
-2242 8488 0
8488 -8486 0
-2242 8489 -8486 0
8489 -8487 0
-2242 -8487 0
-2245 8490 0
8490 -8488 0
-2245 8491 -8488 0
8491 -8489 0
-2245 -8489 0
-2248 8492 0
8492 -8490 0
-2248 8493 -8490 0
8493 -8491 0
-2248 -8491 0
-2251 8494 0
8494 -8492 0
-2251 8495 -8492 0
8495 -8493 0
-2251 -8493 0
-2254 8496 0
8496 -8494 0
-2254 8497 -8494 0
8497 -8495 0
-2254 -8495 0
-2257 8498 0
8498 -8496 0
-2257 8499 -8496 0
8499 -8497 0
-2257 -8497 0
-2260 8500 0
8500 -8498 0
-2260 8501 -8498 0
8501 -8499 0
-2260 -8499 0
-2263 8502 0
8502 -8500 0
-2263 8503 -8500 0
8503 -8501 0
-2263 -8501 0
-2266 8504 0
8504 -8502 0
-2266 8505 -8502 0
8505 -8503 0
-2266 -8503 0
-2269 8506 0
8506 -8504 0
-2269 8507 -8504 0
8507 -8505 0
-2269 -8505 0
-2272 8508 0
8508 -8506 0
-2272 8509 -8506 0
8509 -8507 0
-2272 -8507 0
-2275 8510 0
8510 -8508 0
-2275 8511 -8508 0
8511 -8509 0
-2275 -8509 0
-2278 8512 0
8512 -8510 0
-2278 8513 -8510 0
8513 -8511 0
-2278 -8511 0
-2281 8514 0
8514 -8512 0
-2281 8515 -8512 0
8515 -8513 0
-2281 -8513 0
-2284 8516 0
8516 -8514 0
-2284 8517 -8514 0
8517 -8515 0
-2284 -8515 0
-2287 8518 0
8518 -8516 0
-2287 8519 -8516 0
8519 -8517 0
-2287 -8517 0
-2290 8520 0
8520 -8518 0
-2290 8521 -8518 0
8521 -8519 0
-2290 -8519 0
-2293 8522 0
8522 -8520 0
-2293 8523 -8520 0
8523 -8521 0
-2293 -8521 0
-2298 8524 0
8524 -8522 0
-2298 8525 -8522 0
8525 -8523 0
-2298 -8523 0
-2301 8526 0
8526 -8524 0
-2301 8527 -8524 0
8527 -8525 0
-2301 -8525 0
-2304 8528 0
8528 -8526 0
-2304 8529 -8526 0
8529 -8527 0
-2304 -8527 0
-2307 8530 0
8530 -8528 0
-2307 8531 -8528 0
8531 -8529 0
-2307 -8529 0
-2310 8532 0
8532 -8530 0
-2310 8533 -8530 0
8533 -8531 0
-2310 -8531 0
-2313 8534 0
8534 -8532 0
-2313 8535 -8532 0
8535 -8533 0
-2313 -8533 0
-2316 8536 0
8536 -8534 0
-2316 8537 -8534 0
8537 -8535 0
-2316 -8535 0
-2319 8538 0
8538 -8536 0
-2319 8539 -8536 0
8539 -8537 0
-2319 -8537 0
-2322 8540 0
8540 -8538 0
-2322 8541 -8538 0
8541 -8539 0
-2322 -8539 0
-2325 8542 0
8542 -8540 0
-2325 8543 -8540 0
8543 -8541 0
-2325 -8541 0
-2328 8544 0
8544 -8542 0
-2328 8545 -8542 0
8545 -8543 0
-2328 -8543 0
-2331 8546 0
8546 -8544 0
-2331 8547 -8544 0
8547 -8545 0
-2331 -8545 0
-2334 8548 0
8548 -8546 0
-2334 8549 -8546 0
8549 -8547 0
-2334 -8547 0
-2337 8550 0
8550 -8548 0
-2337 8551 -8548 0
8551 -8549 0
-2337 -8549 0
-2340 8552 0
8552 -8550 0
-2340 8553 -8550 0
8553 -8551 0
-2340 -8551 0
-2343 8554 0
8554 -8552 0
-2343 8555 -8552 0
8555 -8553 0
-2343 -8553 0
-2346 8556 0
8556 -8554 0
-2346 8557 -8554 0
8557 -8555 0
-2346 -8555 0
-2349 8558 0
8558 -8556 0
-2349 8559 -8556 0
8559 -8557 0
-2349 -8557 0
-2352 8560 0
8560 -8558 0
-2352 8561 -8558 0
8561 -8559 0
-2352 -8559 0
-2355 8562 0
8562 -8560 0
-2355 8563 -8560 0
8563 -8561 0
-2355 -8561 0
-2360 8564 0
8564 -8562 0
-2360 8565 -8562 0
8565 -8563 0
-2360 -8563 0
-2363 8566 0
8566 -8564 0
-2363 8567 -8564 0
8567 -8565 0
-2363 -8565 0
-2366 8568 0
8568 -8566 0
-2366 8569 -8566 0
8569 -8567 0
-2366 -8567 0
-2369 8570 0
8570 -8568 0
-2369 8571 -8568 0
8571 -8569 0
-2369 -8569 0
-2372 8572 0
8572 -8570 0
-2372 8573 -8570 0
8573 -8571 0
-2372 -8571 0
-2375 8574 0
8574 -8572 0
-2375 8575 -8572 0
8575 -8573 0
-2375 -8573 0
-2378 8576 0
8576 -8574 0
-2378 8577 -8574 0
8577 -8575 0
-2378 -8575 0
-2381 8578 0
8578 -8576 0
-2381 8579 -8576 0
8579 -8577 0
-2381 -8577 0
-2384 8580 0
8580 -8578 0
-2384 8581 -8578 0
8581 -8579 0
-2384 -8579 0
-2387 8582 0
8582 -8580 0
-2387 8583 -8580 0
8583 -8581 0
-2387 -8581 0
-2390 8584 0
8584 -8582 0
-2390 8585 -8582 0
8585 -8583 0
-2390 -8583 0
-2393 8586 0
8586 -8584 0
-2393 8587 -8584 0
8587 -8585 0
-2393 -8585 0
-2396 8588 0
8588 -8586 0
-2396 8589 -8586 0
8589 -8587 0
-2396 -8587 0
-2399 8590 0
8590 -8588 0
-2399 8591 -8588 0
8591 -8589 0
-2399 -8589 0
-2402 8592 0
8592 -8590 0
-2402 8593 -8590 0
8593 -8591 0
-2402 -8591 0
-2405 8594 0
8594 -8592 0
-2405 8595 -8592 0
8595 -8593 0
-2405 -8593 0
-2408 8596 0
8596 -8594 0
-2408 8597 -8594 0
8597 -8595 0
-2408 -8595 0
-2411 8598 0
8598 -8596 0
-2411 8599 -8596 0
8599 -8597 0
-2411 -8597 0
-2414 8600 0
8600 -8598 0
-2414 8601 -8598 0
8601 -8599 0
-2414 -8599 0
-2417 8602 0
8602 -8600 0
-2417 8603 -8600 0
8603 -8601 0
-2417 -8601 0
-2422 8604 0
8604 -8602 0
-2422 8605 -8602 0
8605 -8603 0
-2422 -8603 0
-2425 8606 0
8606 -8604 0
-2425 8607 -8604 0
8607 -8605 0
-2425 -8605 0
-2428 8608 0
8608 -8606 0
-2428 8609 -8606 0
8609 -8607 0
-2428 -8607 0
-2431 8610 0
8610 -8608 0
-2431 8611 -8608 0
8611 -8609 0
-2431 -8609 0
-2434 8612 0
8612 -8610 0
-2434 8613 -8610 0
8613 -8611 0
-2434 -8611 0
-2437 8614 0
8614 -8612 0
-2437 8615 -8612 0
8615 -8613 0
-2437 -8613 0
-2440 8616 0
8616 -8614 0
-2440 8617 -8614 0
8617 -8615 0
-2440 -8615 0
-2443 8618 0
8618 -8616 0
-2443 8619 -8616 0
8619 -8617 0
-2443 -8617 0
-2446 8620 0
8620 -8618 0
-2446 8621 -8618 0
8621 -8619 0
-2446 -8619 0
-2449 8622 0
8622 -8620 0
-2449 8623 -8620 0
8623 -8621 0
-2449 -8621 0
-2452 8624 0
8624 -8622 0
-2452 8625 -8622 0
8625 -8623 0
-2452 -8623 0
-2455 8626 0
8626 -8624 0
-2455 8627 -8624 0
8627 -8625 0
-2455 -8625 0
-2458 8628 0
8628 -8626 0
-2458 8629 -8626 0
8629 -8627 0
-2458 -8627 0
-2461 8630 0
8630 -8628 0
-2461 8631 -8628 0
8631 -8629 0
-2461 -8629 0
-2464 8632 0
8632 -8630 0
-2464 8633 -8630 0
8633 -8631 0
-2464 -8631 0
-2467 8634 0
8634 -8632 0
-2467 8635 -8632 0
8635 -8633 0
-2467 -8633 0
-2470 8636 0
8636 -8634 0
-2470 8637 -8634 0
8637 -8635 0
-2470 -8635 0
-2473 8638 0
8638 -8636 0
-2473 8639 -8636 0
8639 -8637 0
-2473 -8637 0
-2476 8640 0
8640 -8638 0
-2476 8641 -8638 0
8641 -8639 0
-2476 -8639 0
-2479 8642 0
8642 -8640 0
-2479 8643 -8640 0
8643 -8641 0
-2479 -8641 0
-2484 8644 0
8644 -8642 0
-2484 8645 -8642 0
8645 -8643 0
-2484 -8643 0
-2487 8646 0
8646 -8644 0
-2487 8647 -8644 0
8647 -8645 0
-2487 -8645 0
-2490 8648 0
8648 -8646 0
-2490 8649 -8646 0
8649 -8647 0
-2490 -8647 0
-2493 8650 0
8650 -8648 0
-2493 8651 -8648 0
8651 -8649 0
-2493 -8649 0
-2496 8652 0
8652 -8650 0
-2496 8653 -8650 0
8653 -8651 0
-2496 -8651 0
-2499 8654 0
8654 -8652 0
-2499 8655 -8652 0
8655 -8653 0
-2499 -8653 0
-2502 8656 0
8656 -8654 0
-2502 8657 -8654 0
8657 -8655 0
-2502 -8655 0
-2505 8658 0
8658 -8656 0
-2505 8659 -8656 0
8659 -8657 0
-2505 -8657 0
-2508 8660 0
8660 -8658 0
-2508 8661 -8658 0
8661 -8659 0
-2508 -8659 0
-2511 8662 0
8662 -8660 0
-2511 8663 -8660 0
8663 -8661 0
-2511 -8661 0
-2514 8664 0
8664 -8662 0
-2514 8665 -8662 0
8665 -8663 0
-2514 -8663 0
-2517 8666 0
8666 -8664 0
-2517 8667 -8664 0
8667 -8665 0
-2517 -8665 0
-2520 8668 0
8668 -8666 0
-2520 8669 -8666 0
8669 -8667 0
-2520 -8667 0
-2523 8670 0
8670 -8668 0
-2523 8671 -8668 0
8671 -8669 0
-2523 -8669 0
-2526 8672 0
8672 -8670 0
-2526 8673 -8670 0
8673 -8671 0
-2526 -8671 0
-2529 8674 0
8674 -8672 0
-2529 8675 -8672 0
8675 -8673 0
-2529 -8673 0
-2532 8676 0
8676 -8674 0
-2532 8677 -8674 0
8677 -8675 0
-2532 -8675 0
-2535 8678 0
8678 -8676 0
-2535 8679 -8676 0
8679 -8677 0
-2535 -8677 0
-2538 8680 0
8680 -8678 0
-2538 8681 -8678 0
8681 -8679 0
-2538 -8679 0
-2541 8682 0
8682 -8680 0
-2541 8683 -8680 0
8683 -8681 0
-2541 -8681 0
-2546 8684 0
8684 -8682 0
-2546 8685 -8682 0
8685 -8683 0
-2546 -8683 0
-2549 8686 0
8686 -8684 0
-2549 8687 -8684 0
8687 -8685 0
-2549 -8685 0
-2552 8688 0
8688 -8686 0
-2552 8689 -8686 0
8689 -8687 0
-2552 -8687 0
-2555 8690 0
8690 -8688 0
-2555 8691 -8688 0
8691 -8689 0
-2555 -8689 0
-2558 8692 0
8692 -8690 0
-2558 8693 -8690 0
8693 -8691 0
-2558 -8691 0
-2561 8694 0
8694 -8692 0
-2561 8695 -8692 0
8695 -8693 0
-2561 -8693 0
-2564 8696 0
8696 -8694 0
-2564 8697 -8694 0
8697 -8695 0
-2564 -8695 0
-2567 8698 0
8698 -8696 0
-2567 8699 -8696 0
8699 -8697 0
-2567 -8697 0
-2570 8700 0
8700 -8698 0
-2570 8701 -8698 0
8701 -8699 0
-2570 -8699 0
-2573 8702 0
8702 -8700 0
-2573 8703 -8700 0
8703 -8701 0
-2573 -8701 0
-2576 8704 0
8704 -8702 0
-2576 8705 -8702 0
8705 -8703 0
-2576 -8703 0
-2579 8706 0
8706 -8704 0
-2579 8707 -8704 0
8707 -8705 0
-2579 -8705 0
-2582 8708 0
8708 -8706 0
-2582 8709 -8706 0
8709 -8707 0
-2582 -8707 0
-2585 8710 0
8710 -8708 0
-2585 8711 -8708 0
8711 -8709 0
-2585 -8709 0
-2588 8712 0
8712 -8710 0
-2588 8713 -8710 0
8713 -8711 0
-2588 -8711 0
-2591 8714 0
8714 -8712 0
-2591 8715 -8712 0
8715 -8713 0
-2591 -8713 0
-2594 8716 0
8716 -8714 0
-2594 8717 -8714 0
8717 -8715 0
-2594 -8715 0
-2597 8718 0
8718 -8716 0
-2597 8719 -8716 0
8719 -8717 0
-2597 -8717 0
-2600 8720 0
8720 -8718 0
-2600 8721 -8718 0
8721 -8719 0
-2600 -8719 0
-2603 8722 0
8722 -8720 0
-2603 8723 -8720 0
8723 -8721 0
-2603 -8721 0
-2608 8724 0
8724 -8722 0
-2608 8725 -8722 0
8725 -8723 0
-2608 -8723 0
-2611 8726 0
8726 -8724 0
-2611 8727 -8724 0
8727 -8725 0
-2611 -8725 0
-2614 8728 0
8728 -8726 0
-2614 8729 -8726 0
8729 -8727 0
-2614 -8727 0
-2617 8730 0
8730 -8728 0
-2617 8731 -8728 0
8731 -8729 0
-2617 -8729 0
-2620 8732 0
8732 -8730 0
-2620 8733 -8730 0
8733 -8731 0
-2620 -8731 0
-2623 8734 0
8734 -8732 0
-2623 8735 -8732 0
8735 -8733 0
-2623 -8733 0
-2626 8736 0
8736 -8734 0
-2626 8737 -8734 0
8737 -8735 0
-2626 -8735 0
-2629 8738 0
8738 -8736 0
-2629 8739 -8736 0
8739 -8737 0
-2629 -8737 0
-2632 8740 0
8740 -8738 0
-2632 8741 -8738 0
8741 -8739 0
-2632 -8739 0
-2635 8742 0
8742 -8740 0
-2635 8743 -8740 0
8743 -8741 0
-2635 -8741 0
-2638 8744 0
8744 -8742 0
-2638 8745 -8742 0
8745 -8743 0
-2638 -8743 0
-2641 8746 0
8746 -8744 0
-2641 8747 -8744 0
8747 -8745 0
-2641 -8745 0
-2644 8748 0
8748 -8746 0
-2644 8749 -8746 0
8749 -8747 0
-2644 -8747 0
-2647 8750 0
8750 -8748 0
-2647 8751 -8748 0
8751 -8749 0
-2647 -8749 0
-2650 8752 0
8752 -8750 0
-2650 8753 -8750 0
8753 -8751 0
-2650 -8751 0
-2653 8754 0
8754 -8752 0
-2653 8755 -8752 0
8755 -8753 0
-2653 -8753 0
-2656 8756 0
8756 -8754 0
-2656 8757 -8754 0
8757 -8755 0
-2656 -8755 0
-2659 8758 0
8758 -8756 0
-2659 8759 -8756 0
8759 -8757 0
-2659 -8757 0
-2662 8760 0
8760 -8758 0
-2662 8761 -8758 0
8761 -8759 0
-2662 -8759 0
-2665 8762 0
8762 -8760 0
-2665 8763 -8760 0
8763 -8761 0
-2665 -8761 0
-2670 8764 0
8764 -8762 0
-2670 8765 -8762 0
8765 -8763 0
-2670 -8763 0
-2673 8766 0
8766 -8764 0
-2673 8767 -8764 0
8767 -8765 0
-2673 -8765 0
-2676 8768 0
8768 -8766 0
-2676 8769 -8766 0
8769 -8767 0
-2676 -8767 0
-2679 8770 0
8770 -8768 0
-2679 8771 -8768 0
8771 -8769 0
-2679 -8769 0
-2682 8772 0
8772 -8770 0
-2682 8773 -8770 0
8773 -8771 0
-2682 -8771 0
-2685 8774 0
8774 -8772 0
-2685 8775 -8772 0
8775 -8773 0
-2685 -8773 0
-2688 8776 0
8776 -8774 0
-2688 8777 -8774 0
8777 -8775 0
-2688 -8775 0
-2691 8778 0
8778 -8776 0
-2691 8779 -8776 0
8779 -8777 0
-2691 -8777 0
-2694 8780 0
8780 -8778 0
-2694 8781 -8778 0
8781 -8779 0
-2694 -8779 0
-2697 8782 0
8782 -8780 0
-2697 8783 -8780 0
8783 -8781 0
-2697 -8781 0
-2700 8784 0
8784 -8782 0
-2700 8785 -8782 0
8785 -8783 0
-2700 -8783 0
-2703 8786 0
8786 -8784 0
-2703 8787 -8784 0
8787 -8785 0
-2703 -8785 0
-2706 8788 0
8788 -8786 0
-2706 8789 -8786 0
8789 -8787 0
-2706 -8787 0
-2709 8790 0
8790 -8788 0
-2709 8791 -8788 0
8791 -8789 0
-2709 -8789 0
-2712 8792 0
8792 -8790 0
-2712 8793 -8790 0
8793 -8791 0
-2712 -8791 0
-2715 8794 0
8794 -8792 0
-2715 8795 -8792 0
8795 -8793 0
-2715 -8793 0
-2718 8796 0
8796 -8794 0
-2718 8797 -8794 0
8797 -8795 0
-2718 -8795 0
-2721 8798 0
8798 -8796 0
-2721 8799 -8796 0
8799 -8797 0
-2721 -8797 0
-2724 8800 0
8800 -8798 0
-2724 8801 -8798 0
8801 -8799 0
-2724 -8799 0
-2727 8802 0
8802 -8800 0
-2727 8803 -8800 0
8803 -8801 0
-2727 -8801 0
-2732 8804 0
8804 -8802 0
-2732 8805 -8802 0
8805 -8803 0
-2732 -8803 0
-2735 8806 0
8806 -8804 0
-2735 8807 -8804 0
8807 -8805 0
-2735 -8805 0
-2738 8808 0
8808 -8806 0
-2738 8809 -8806 0
8809 -8807 0
-2738 -8807 0
-2741 8810 0
8810 -8808 0
-2741 8811 -8808 0
8811 -8809 0
-2741 -8809 0
-2744 8812 0
8812 -8810 0
-2744 8813 -8810 0
8813 -8811 0
-2744 -8811 0
-2747 8814 0
8814 -8812 0
-2747 8815 -8812 0
8815 -8813 0
-2747 -8813 0
-2750 8816 0
8816 -8814 0
-2750 8817 -8814 0
8817 -8815 0
-2750 -8815 0
-2753 8818 0
8818 -8816 0
-2753 8819 -8816 0
8819 -8817 0
-2753 -8817 0
-2756 8820 0
8820 -8818 0
-2756 8821 -8818 0
8821 -8819 0
-2756 -8819 0
-2759 8822 0
8822 -8820 0
-2759 8823 -8820 0
8823 -8821 0
-2759 -8821 0
-2762 8824 0
8824 -8822 0
-2762 8825 -8822 0
8825 -8823 0
-2762 -8823 0
-2765 8826 0
8826 -8824 0
-2765 8827 -8824 0
8827 -8825 0
-2765 -8825 0
-2768 8828 0
8828 -8826 0
-2768 8829 -8826 0
8829 -8827 0
-2768 -8827 0
-2771 8830 0
8830 -8828 0
-2771 8831 -8828 0
8831 -8829 0
-2771 -8829 0
-2774 8832 0
8832 -8830 0
-2774 8833 -8830 0
8833 -8831 0
-2774 -8831 0
-2777 8834 0
8834 -8832 0
-2777 8835 -8832 0
8835 -8833 0
-2777 -8833 0
-2780 8836 0
8836 -8834 0
-2780 8837 -8834 0
8837 -8835 0
-2780 -8835 0
-2783 8838 0
8838 -8836 0
-2783 8839 -8836 0
8839 -8837 0
-2783 -8837 0
-2786 8840 0
8840 -8838 0
-2786 8841 -8838 0
8841 -8839 0
-2786 -8839 0
-2789 8842 0
8842 -8840 0
-2789 8843 -8840 0
8843 -8841 0
-2789 -8841 0
-2794 8844 0
8844 -8842 0
-2794 8845 -8842 0
8845 -8843 0
-2794 -8843 0
-2797 8846 0
8846 -8844 0
-2797 8847 -8844 0
8847 -8845 0
-2797 -8845 0
-2800 8848 0
8848 -8846 0
-2800 8849 -8846 0
8849 -8847 0
-2800 -8847 0
-2803 8850 0
8850 -8848 0
-2803 8851 -8848 0
8851 -8849 0
-2803 -8849 0
-2806 8852 0
8852 -8850 0
-2806 8853 -8850 0
8853 -8851 0
-2806 -8851 0
-2809 8854 0
8854 -8852 0
-2809 8855 -8852 0
8855 -8853 0
-2809 -8853 0
-2812 8856 0
8856 -8854 0
-2812 8857 -8854 0
8857 -8855 0
-2812 -8855 0
-2815 8858 0
8858 -8856 0
-2815 8859 -8856 0
8859 -8857 0
-2815 -8857 0
-2818 8860 0
8860 -8858 0
-2818 8861 -8858 0
8861 -8859 0
-2818 -8859 0
-2821 8862 0
8862 -8860 0
-2821 8863 -8860 0
8863 -8861 0
-2821 -8861 0
-2824 8864 0
8864 -8862 0
-2824 8865 -8862 0
8865 -8863 0
-2824 -8863 0
-2827 8866 0
8866 -8864 0
-2827 8867 -8864 0
8867 -8865 0
-2827 -8865 0
-2830 8868 0
8868 -8866 0
-2830 8869 -8866 0
8869 -8867 0
-2830 -8867 0
-2833 8870 0
8870 -8868 0
-2833 8871 -8868 0
8871 -8869 0
-2833 -8869 0
-2836 8872 0
8872 -8870 0
-2836 8873 -8870 0
8873 -8871 0
-2836 -8871 0
-2839 8874 0
8874 -8872 0
-2839 8875 -8872 0
8875 -8873 0
-2839 -8873 0
-2842 8876 0
8876 -8874 0
-2842 8877 -8874 0
8877 -8875 0
-2842 -8875 0
-2845 8878 0
8878 -8876 0
-2845 8879 -8876 0
8879 -8877 0
-2845 -8877 0
-2848 8880 0
8880 -8878 0
-2848 8881 -8878 0
8881 -8879 0
-2848 -8879 0
-2851 8882 0
8882 -8880 0
-2851 8883 -8880 0
8883 -8881 0
-2851 -8881 0
-2856 8884 0
8884 -8882 0
-2856 8885 -8882 0
8885 -8883 0
-2856 -8883 0
-2859 8886 0
8886 -8884 0
-2859 8887 -8884 0
8887 -8885 0
-2859 -8885 0
-2862 8888 0
8888 -8886 0
-2862 8889 -8886 0
8889 -8887 0
-2862 -8887 0
-2865 8890 0
8890 -8888 0
-2865 8891 -8888 0
8891 -8889 0
-2865 -8889 0
-2868 8892 0
8892 -8890 0
-2868 8893 -8890 0
8893 -8891 0
-2868 -8891 0
-2871 8894 0
8894 -8892 0
-2871 8895 -8892 0
8895 -8893 0
-2871 -8893 0
-2874 8896 0
8896 -8894 0
-2874 8897 -8894 0
8897 -8895 0
-2874 -8895 0
-2877 8898 0
8898 -8896 0
-2877 8899 -8896 0
8899 -8897 0
-2877 -8897 0
-2880 8900 0
8900 -8898 0
-2880 8901 -8898 0
8901 -8899 0
-2880 -8899 0
-2883 8902 0
8902 -8900 0
-2883 8903 -8900 0
8903 -8901 0
-2883 -8901 0
-2886 8904 0
8904 -8902 0
-2886 8905 -8902 0
8905 -8903 0
-2886 -8903 0
-2889 8906 0
8906 -8904 0
-2889 8907 -8904 0
8907 -8905 0
-2889 -8905 0
-2892 8908 0
8908 -8906 0
-2892 8909 -8906 0
8909 -8907 0
-2892 -8907 0
-2895 8910 0
8910 -8908 0
-2895 8911 -8908 0
8911 -8909 0
-2895 -8909 0
-2898 8912 0
8912 -8910 0
-2898 8913 -8910 0
8913 -8911 0
-2898 -8911 0
-2901 8914 0
8914 -8912 0
-2901 8915 -8912 0
8915 -8913 0
-2901 -8913 0
-2904 8916 0
8916 -8914 0
-2904 8917 -8914 0
8917 -8915 0
-2904 -8915 0
-2907 8918 0
8918 -8916 0
-2907 8919 -8916 0
8919 -8917 0
-2907 -8917 0
-2910 8920 0
8920 -8918 0
-2910 8921 -8918 0
8921 -8919 0
-2910 -8919 0
-2913 8922 0
8922 -8920 0
-2913 8923 -8920 0
8923 -8921 0
-2913 -8921 0
-2918 8924 0
8924 -8922 0
-2918 8925 -8922 0
8925 -8923 0
-2918 -8923 0
-2921 8926 0
8926 -8924 0
-2921 8927 -8924 0
8927 -8925 0
-2921 -8925 0
-2924 8928 0
8928 -8926 0
-2924 8929 -8926 0
8929 -8927 0
-2924 -8927 0
-2927 8930 0
8930 -8928 0
-2927 8931 -8928 0
8931 -8929 0
-2927 -8929 0
-2930 8932 0
8932 -8930 0
-2930 8933 -8930 0
8933 -8931 0
-2930 -8931 0
-2933 8934 0
8934 -8932 0
-2933 8935 -8932 0
8935 -8933 0
-2933 -8933 0
-2936 8936 0
8936 -8934 0
-2936 8937 -8934 0
8937 -8935 0
-2936 -8935 0
-2939 8938 0
8938 -8936 0
-2939 8939 -8936 0
8939 -8937 0
-2939 -8937 0
-2942 8940 0
8940 -8938 0
-2942 8941 -8938 0
8941 -8939 0
-2942 -8939 0
-2945 8942 0
8942 -8940 0
-2945 8943 -8940 0
8943 -8941 0
-2945 -8941 0
-2948 8944 0
8944 -8942 0
-2948 8945 -8942 0
8945 -8943 0
-2948 -8943 0
-2951 8946 0
8946 -8944 0
-2951 8947 -8944 0
8947 -8945 0
-2951 -8945 0
-2954 8948 0
8948 -8946 0
-2954 8949 -8946 0
8949 -8947 0
-2954 -8947 0
-2957 8950 0
8950 -8948 0
-2957 8951 -8948 0
8951 -8949 0
-2957 -8949 0
-2960 8952 0
8952 -8950 0
-2960 8953 -8950 0
8953 -8951 0
-2960 -8951 0
-2963 8954 0
8954 -8952 0
-2963 8955 -8952 0
8955 -8953 0
-2963 -8953 0
-2966 8956 0
8956 -8954 0
-2966 8957 -8954 0
8957 -8955 0
-2966 -8955 0
-2969 8958 0
8958 -8956 0
-2969 8959 -8956 0
8959 -8957 0
-2969 -8957 0
-2972 8960 0
8960 -8958 0
-2972 8961 -8958 0
8961 -8959 0
-2972 -8959 0
-2975 8962 0
8962 -8960 0
-2975 8963 -8960 0
8963 -8961 0
-2975 -8961 0
-2980 8964 0
8964 -8962 0
-2980 8965 -8962 0
8965 -8963 0
-2980 -8963 0
-2983 8966 0
8966 -8964 0
-2983 8967 -8964 0
8967 -8965 0
-2983 -8965 0
-2986 8968 0
8968 -8966 0
-2986 8969 -8966 0
8969 -8967 0
-2986 -8967 0
-2989 8970 0
8970 -8968 0
-2989 8971 -8968 0
8971 -8969 0
-2989 -8969 0
-2992 8972 0
8972 -8970 0
-2992 8973 -8970 0
8973 -8971 0
-2992 -8971 0
-2995 8974 0
8974 -8972 0
-2995 8975 -8972 0
8975 -8973 0
-2995 -8973 0
-2998 8976 0
8976 -8974 0
-2998 8977 -8974 0
8977 -8975 0
-2998 -8975 0
-3001 8978 0
8978 -8976 0
-3001 8979 -8976 0
8979 -8977 0
-3001 -8977 0
-3004 8980 0
8980 -8978 0
-3004 8981 -8978 0
8981 -8979 0
-3004 -8979 0
-3007 8982 0
8982 -8980 0
-3007 8983 -8980 0
8983 -8981 0
-3007 -8981 0
-3010 8984 0
8984 -8982 0
-3010 8985 -8982 0
8985 -8983 0
-3010 -8983 0
-3013 8986 0
8986 -8984 0
-3013 8987 -8984 0
8987 -8985 0
-3013 -8985 0
-3016 8988 0
8988 -8986 0
-3016 8989 -8986 0
8989 -8987 0
-3016 -8987 0
-3019 8990 0
8990 -8988 0
-3019 8991 -8988 0
8991 -8989 0
-3019 -8989 0
-3022 8992 0
8992 -8990 0
-3022 8993 -8990 0
8993 -8991 0
-3022 -8991 0
-3025 8994 0
8994 -8992 0
-3025 8995 -8992 0
8995 -8993 0
-3025 -8993 0
-3028 8996 0
8996 -8994 0
-3028 8997 -8994 0
8997 -8995 0
-3028 -8995 0
-3031 8998 0
8998 -8996 0
-3031 8999 -8996 0
8999 -8997 0
-3031 -8997 0
-3034 9000 0
9000 -8998 0
-3034 9001 -8998 0
9001 -8999 0
-3034 -8999 0
-3037 9002 0
9002 -9000 0
-3037 9003 -9000 0
9003 -9001 0
-3037 -9001 0
-3042 9004 0
9004 -9002 0
-3042 9005 -9002 0
9005 -9003 0
-3042 -9003 0
-3045 9006 0
9006 -9004 0
-3045 9007 -9004 0
9007 -9005 0
-3045 -9005 0
-3048 9008 0
9008 -9006 0
-3048 9009 -9006 0
9009 -9007 0
-3048 -9007 0
-3051 9010 0
9010 -9008 0
-3051 9011 -9008 0
9011 -9009 0
-3051 -9009 0
-3054 9012 0
9012 -9010 0
-3054 9013 -9010 0
9013 -9011 0
-3054 -9011 0
-3057 9014 0
9014 -9012 0
-3057 9015 -9012 0
9015 -9013 0
-3057 -9013 0
-3060 9016 0
9016 -9014 0
-3060 9017 -9014 0
9017 -9015 0
-3060 -9015 0
-3063 9018 0
9018 -9016 0
-3063 9019 -9016 0
9019 -9017 0
-3063 -9017 0
-3066 9020 0
9020 -9018 0
-3066 9021 -9018 0
9021 -9019 0
-3066 -9019 0
-3069 9022 0
9022 -9020 0
-3069 9023 -9020 0
9023 -9021 0
-3069 -9021 0
-3072 9024 0
9024 -9022 0
-3072 9025 -9022 0
9025 -9023 0
-3072 -9023 0
-3075 9026 0
9026 -9024 0
-3075 9027 -9024 0
9027 -9025 0
-3075 -9025 0
-3078 9028 0
9028 -9026 0
-3078 9029 -9026 0
9029 -9027 0
-3078 -9027 0
-3081 9030 0
9030 -9028 0
-3081 9031 -9028 0
9031 -9029 0
-3081 -9029 0
-3084 9032 0
9032 -9030 0
-3084 9033 -9030 0
9033 -9031 0
-3084 -9031 0
-3087 9034 0
9034 -9032 0
-3087 9035 -9032 0
9035 -9033 0
-3087 -9033 0
-3090 9036 0
9036 -9034 0
-3090 9037 -9034 0
9037 -9035 0
-3090 -9035 0
-3093 9038 0
9038 -9036 0
-3093 9039 -9036 0
9039 -9037 0
-3093 -9037 0
-3096 9040 0
9040 -9038 0
-3096 9041 -9038 0
9041 -9039 0
-3096 -9039 0
-3099 9042 0
9042 -9040 0
-3099 9043 -9040 0
9043 -9041 0
-3099 -9041 0
-3104 9044 0
9044 -9042 0
-3104 9045 -9042 0
9045 -9043 0
-3104 -9043 0
-3107 9046 0
9046 -9044 0
-3107 9047 -9044 0
9047 -9045 0
-3107 -9045 0
-3110 9048 0
9048 -9046 0
-3110 9049 -9046 0
9049 -9047 0
-3110 -9047 0
-3113 9050 0
9050 -9048 0
-3113 9051 -9048 0
9051 -9049 0
-3113 -9049 0
-3116 9052 0
9052 -9050 0
-3116 9053 -9050 0
9053 -9051 0
-3116 -9051 0
-3119 9054 0
9054 -9052 0
-3119 9055 -9052 0
9055 -9053 0
-3119 -9053 0
-3122 9056 0
9056 -9054 0
-3122 9057 -9054 0
9057 -9055 0
-3122 -9055 0
-3125 9058 0
9058 -9056 0
-3125 9059 -9056 0
9059 -9057 0
-3125 -9057 0
-3128 9060 0
9060 -9058 0
-3128 9061 -9058 0
9061 -9059 0
-3128 -9059 0
-3131 9062 0
9062 -9060 0
-3131 9063 -9060 0
9063 -9061 0
-3131 -9061 0
-3134 9064 0
9064 -9062 0
-3134 9065 -9062 0
9065 -9063 0
-3134 -9063 0
-3137 9066 0
9066 -9064 0
-3137 9067 -9064 0
9067 -9065 0
-3137 -9065 0
-3140 9068 0
9068 -9066 0
-3140 9069 -9066 0
9069 -9067 0
-3140 -9067 0
-3143 9070 0
9070 -9068 0
-3143 9071 -9068 0
9071 -9069 0
-3143 -9069 0
-3146 9072 0
9072 -9070 0
-3146 9073 -9070 0
9073 -9071 0
-3146 -9071 0
-3149 9074 0
9074 -9072 0
-3149 9075 -9072 0
9075 -9073 0
-3149 -9073 0
-3152 9076 0
9076 -9074 0
-3152 9077 -9074 0
9077 -9075 0
-3152 -9075 0
-3155 9078 0
9078 -9076 0
-3155 9079 -9076 0
9079 -9077 0
-3155 -9077 0
-3158 9080 0
9080 -9078 0
-3158 9081 -9078 0
9081 -9079 0
-3158 -9079 0
-3161 9082 0
9082 -9080 0
-3161 9083 -9080 0
9083 -9081 0
-3161 -9081 0
-3166 9084 0
9084 -9082 0
-3166 9085 -9082 0
9085 -9083 0
-3166 -9083 0
-3169 9086 0
9086 -9084 0
-3169 9087 -9084 0
9087 -9085 0
-3169 -9085 0
-3172 9088 0
9088 -9086 0
-3172 9089 -9086 0
9089 -9087 0
-3172 -9087 0
-3175 9090 0
9090 -9088 0
-3175 9091 -9088 0
9091 -9089 0
-3175 -9089 0
-3178 9092 0
9092 -9090 0
-3178 9093 -9090 0
9093 -9091 0
-3178 -9091 0
-3181 9094 0
9094 -9092 0
-3181 9095 -9092 0
9095 -9093 0
-3181 -9093 0
-3184 9096 0
9096 -9094 0
-3184 9097 -9094 0
9097 -9095 0
-3184 -9095 0
-3187 9098 0
9098 -9096 0
-3187 9099 -9096 0
9099 -9097 0
-3187 -9097 0
-3190 9100 0
9100 -9098 0
-3190 9101 -9098 0
9101 -9099 0
-3190 -9099 0
-3193 9102 0
9102 -9100 0
-3193 9103 -9100 0
9103 -9101 0
-3193 -9101 0
-3196 9104 0
9104 -9102 0
-3196 9105 -9102 0
9105 -9103 0
-3196 -9103 0
-3199 9106 0
9106 -9104 0
-3199 9107 -9104 0
9107 -9105 0
-3199 -9105 0
-3202 9108 0
9108 -9106 0
-3202 9109 -9106 0
9109 -9107 0
-3202 -9107 0
-3205 9110 0
9110 -9108 0
-3205 9111 -9108 0
9111 -9109 0
-3205 -9109 0
-3208 9112 0
9112 -9110 0
-3208 9113 -9110 0
9113 -9111 0
-3208 -9111 0
-3211 9114 0
9114 -9112 0
-3211 9115 -9112 0
9115 -9113 0
-3211 -9113 0
-3214 9116 0
9116 -9114 0
-3214 9117 -9114 0
9117 -9115 0
-3214 -9115 0
-3217 9118 0
9118 -9116 0
-3217 9119 -9116 0
9119 -9117 0
-3217 -9117 0
-3220 9120 0
9120 -9118 0
-3220 9121 -9118 0
9121 -9119 0
-3220 -9119 0
-3223 9122 0
9122 -9120 0
-3223 9123 -9120 0
9123 -9121 0
-3223 -9121 0
-3228 9124 0
9124 -9122 0
-3228 9125 -9122 0
9125 -9123 0
-3228 -9123 0
-3231 9126 0
9126 -9124 0
-3231 9127 -9124 0
9127 -9125 0
-3231 -9125 0
-3234 9128 0
9128 -9126 0
-3234 9129 -9126 0
9129 -9127 0
-3234 -9127 0
-3237 9130 0
9130 -9128 0
-3237 9131 -9128 0
9131 -9129 0
-3237 -9129 0
-3240 9132 0
9132 -9130 0
-3240 9133 -9130 0
9133 -9131 0
-3240 -9131 0
-3243 9134 0
9134 -9132 0
-3243 9135 -9132 0
9135 -9133 0
-3243 -9133 0
-3246 9136 0
9136 -9134 0
-3246 9137 -9134 0
9137 -9135 0
-3246 -9135 0
-3249 9138 0
9138 -9136 0
-3249 9139 -9136 0
9139 -9137 0
-3249 -9137 0
-3252 9140 0
9140 -9138 0
-3252 9141 -9138 0
9141 -9139 0
-3252 -9139 0
-3255 9142 0
9142 -9140 0
-3255 9143 -9140 0
9143 -9141 0
-3255 -9141 0
-3258 9144 0
9144 -9142 0
-3258 9145 -9142 0
9145 -9143 0
-3258 -9143 0
-3261 9146 0
9146 -9144 0
-3261 9147 -9144 0
9147 -9145 0
-3261 -9145 0
-3264 9148 0
9148 -9146 0
-3264 9149 -9146 0
9149 -9147 0
-3264 -9147 0
-3267 9150 0
9150 -9148 0
-3267 9151 -9148 0
9151 -9149 0
-3267 -9149 0
-3270 9152 0
9152 -9150 0
-3270 9153 -9150 0
9153 -9151 0
-3270 -9151 0
-3273 9154 0
9154 -9152 0
-3273 9155 -9152 0
9155 -9153 0
-3273 -9153 0
-3276 9156 0
9156 -9154 0
-3276 9157 -9154 0
9157 -9155 0
-3276 -9155 0
-3279 9158 0
9158 -9156 0
-3279 9159 -9156 0
9159 -9157 0
-3279 -9157 0
-3282 9160 0
9160 -9158 0
-3282 9161 -9158 0
9161 -9159 0
-3282 -9159 0
-3285 9162 0
9162 -9160 0
-3285 9163 -9160 0
9163 -9161 0
-3285 -9161 0
-3290 9164 0
9164 -9162 0
-3290 9165 -9162 0
9165 -9163 0
-3290 -9163 0
-3293 9166 0
9166 -9164 0
-3293 9167 -9164 0
9167 -9165 0
-3293 -9165 0
-3296 9168 0
9168 -9166 0
-3296 9169 -9166 0
9169 -9167 0
-3296 -9167 0
-3299 9170 0
9170 -9168 0
-3299 9171 -9168 0
9171 -9169 0
-3299 -9169 0
-3302 9172 0
9172 -9170 0
-3302 9173 -9170 0
9173 -9171 0
-3302 -9171 0
-3305 9174 0
9174 -9172 0
-3305 9175 -9172 0
9175 -9173 0
-3305 -9173 0
-3308 9176 0
9176 -9174 0
-3308 9177 -9174 0
9177 -9175 0
-3308 -9175 0
-3311 9178 0
9178 -9176 0
-3311 9179 -9176 0
9179 -9177 0
-3311 -9177 0
-3314 9180 0
9180 -9178 0
-3314 9181 -9178 0
9181 -9179 0
-3314 -9179 0
-3317 9182 0
9182 -9180 0
-3317 9183 -9180 0
9183 -9181 0
-3317 -9181 0
-3320 9184 0
9184 -9182 0
-3320 9185 -9182 0
9185 -9183 0
-3320 -9183 0
-3323 9186 0
9186 -9184 0
-3323 9187 -9184 0
9187 -9185 0
-3323 -9185 0
-3326 9188 0
9188 -9186 0
-3326 9189 -9186 0
9189 -9187 0
-3326 -9187 0
-3329 9190 0
9190 -9188 0
-3329 9191 -9188 0
9191 -9189 0
-3329 -9189 0
-3332 9192 0
9192 -9190 0
-3332 9193 -9190 0
9193 -9191 0
-3332 -9191 0
-3335 9194 0
9194 -9192 0
-3335 9195 -9192 0
9195 -9193 0
-3335 -9193 0
-3338 9196 0
9196 -9194 0
-3338 9197 -9194 0
9197 -9195 0
-3338 -9195 0
-3341 9198 0
9198 -9196 0
-3341 9199 -9196 0
9199 -9197 0
-3341 -9197 0
-3344 9200 0
9200 -9198 0
-3344 9201 -9198 0
9201 -9199 0
-3344 -9199 0
-3347 9202 0
9202 -9200 0
-3347 9203 -9200 0
9203 -9201 0
-3347 -9201 0
-3352 9204 0
9204 -9202 0
-3352 9205 -9202 0
9205 -9203 0
-3352 -9203 0
-3355 9206 0
9206 -9204 0
-3355 9207 -9204 0
9207 -9205 0
-3355 -9205 0
-3358 9208 0
9208 -9206 0
-3358 9209 -9206 0
9209 -9207 0
-3358 -9207 0
-3361 9210 0
9210 -9208 0
-3361 9211 -9208 0
9211 -9209 0
-3361 -9209 0
-3364 9212 0
9212 -9210 0
-3364 9213 -9210 0
9213 -9211 0
-3364 -9211 0
-3367 9214 0
9214 -9212 0
-3367 9215 -9212 0
9215 -9213 0
-3367 -9213 0
-3370 9216 0
9216 -9214 0
-3370 9217 -9214 0
9217 -9215 0
-3370 -9215 0
-3373 9218 0
9218 -9216 0
-3373 9219 -9216 0
9219 -9217 0
-3373 -9217 0
-3376 9220 0
9220 -9218 0
-3376 9221 -9218 0
9221 -9219 0
-3376 -9219 0
-3379 9222 0
9222 -9220 0
-3379 9223 -9220 0
9223 -9221 0
-3379 -9221 0
-3382 9224 0
9224 -9222 0
-3382 9225 -9222 0
9225 -9223 0
-3382 -9223 0
-3385 9226 0
9226 -9224 0
-3385 9227 -9224 0
9227 -9225 0
-3385 -9225 0
-3388 9228 0
9228 -9226 0
-3388 9229 -9226 0
9229 -9227 0
-3388 -9227 0
-3391 9230 0
9230 -9228 0
-3391 9231 -9228 0
9231 -9229 0
-3391 -9229 0
-3394 9232 0
9232 -9230 0
-3394 9233 -9230 0
9233 -9231 0
-3394 -9231 0
-3397 9234 0
9234 -9232 0
-3397 9235 -9232 0
9235 -9233 0
-3397 -9233 0
-3400 9236 0
9236 -9234 0
-3400 9237 -9234 0
9237 -9235 0
-3400 -9235 0
-3403 9238 0
9238 -9236 0
-3403 9239 -9236 0
9239 -9237 0
-3403 -9237 0
-3406 9240 0
9240 -9238 0
-3406 9241 -9238 0
9241 -9239 0
-3406 -9239 0
-3409 9242 0
9242 -9240 0
-3409 9243 -9240 0
9243 -9241 0
-3409 -9241 0
-3414 9244 0
9244 -9242 0
-3414 9245 -9242 0
9245 -9243 0
-3414 -9243 0
-3417 9246 0
9246 -9244 0
-3417 9247 -9244 0
9247 -9245 0
-3417 -9245 0
-3420 9248 0
9248 -9246 0
-3420 9249 -9246 0
9249 -9247 0
-3420 -9247 0
-3423 9250 0
9250 -9248 0
-3423 9251 -9248 0
9251 -9249 0
-3423 -9249 0
-3426 9252 0
9252 -9250 0
-3426 9253 -9250 0
9253 -9251 0
-3426 -9251 0
-3429 9254 0
9254 -9252 0
-3429 9255 -9252 0
9255 -9253 0
-3429 -9253 0
-3432 9256 0
9256 -9254 0
-3432 9257 -9254 0
9257 -9255 0
-3432 -9255 0
-3435 9258 0
9258 -9256 0
-3435 9259 -9256 0
9259 -9257 0
-3435 -9257 0
-3438 9260 0
9260 -9258 0
-3438 9261 -9258 0
9261 -9259 0
-3438 -9259 0
-3441 9262 0
9262 -9260 0
-3441 9263 -9260 0
9263 -9261 0
-3441 -9261 0
-3444 9264 0
9264 -9262 0
-3444 9265 -9262 0
9265 -9263 0
-3444 -9263 0
-3447 9266 0
9266 -9264 0
-3447 9267 -9264 0
9267 -9265 0
-3447 -9265 0
-3450 9268 0
9268 -9266 0
-3450 9269 -9266 0
9269 -9267 0
-3450 -9267 0
-3453 9270 0
9270 -9268 0
-3453 9271 -9268 0
9271 -9269 0
-3453 -9269 0
-3456 9272 0
9272 -9270 0
-3456 9273 -9270 0
9273 -9271 0
-3456 -9271 0
-3459 9274 0
9274 -9272 0
-3459 9275 -9272 0
9275 -9273 0
-3459 -9273 0
-3462 9276 0
9276 -9274 0
-3462 9277 -9274 0
9277 -9275 0
-3462 -9275 0
-3465 9278 0
9278 -9276 0
-3465 9279 -9276 0
9279 -9277 0
-3465 -9277 0
-3468 9280 0
9280 -9278 0
-3468 9281 -9278 0
9281 -9279 0
-3468 -9279 0
-3471 9282 0
9282 -9280 0
-3471 9283 -9280 0
9283 -9281 0
-3471 -9281 0
-3476 9284 0
9284 -9282 0
-3476 9285 -9282 0
9285 -9283 0
-3476 -9283 0
-3479 9286 0
9286 -9284 0
-3479 9287 -9284 0
9287 -9285 0
-3479 -9285 0
-3482 9288 0
9288 -9286 0
-3482 9289 -9286 0
9289 -9287 0
-3482 -9287 0
-3485 9290 0
9290 -9288 0
-3485 9291 -9288 0
9291 -9289 0
-3485 -9289 0
-3488 9292 0
9292 -9290 0
-3488 9293 -9290 0
9293 -9291 0
-3488 -9291 0
-3491 9294 0
9294 -9292 0
-3491 9295 -9292 0
9295 -9293 0
-3491 -9293 0
-3494 9296 0
9296 -9294 0
-3494 9297 -9294 0
9297 -9295 0
-3494 -9295 0
-3497 9298 0
9298 -9296 0
-3497 9299 -9296 0
9299 -9297 0
-3497 -9297 0
-3500 9300 0
9300 -9298 0
-3500 9301 -9298 0
9301 -9299 0
-3500 -9299 0
-3503 9302 0
9302 -9300 0
-3503 9303 -9300 0
9303 -9301 0
-3503 -9301 0
-3506 9304 0
9304 -9302 0
-3506 9305 -9302 0
9305 -9303 0
-3506 -9303 0
-3509 9306 0
9306 -9304 0
-3509 9307 -9304 0
9307 -9305 0
-3509 -9305 0
-3512 9308 0
9308 -9306 0
-3512 9309 -9306 0
9309 -9307 0
-3512 -9307 0
-3515 9310 0
9310 -9308 0
-3515 9311 -9308 0
9311 -9309 0
-3515 -9309 0
-3518 9312 0
9312 -9310 0
-3518 9313 -9310 0
9313 -9311 0
-3518 -9311 0
-3521 9314 0
9314 -9312 0
-3521 9315 -9312 0
9315 -9313 0
-3521 -9313 0
-3524 9316 0
9316 -9314 0
-3524 9317 -9314 0
9317 -9315 0
-3524 -9315 0
-3527 9318 0
9318 -9316 0
-3527 9319 -9316 0
9319 -9317 0
-3527 -9317 0
-3530 9320 0
9320 -9318 0
-3530 9321 -9318 0
9321 -9319 0
-3530 -9319 0
-3533 9322 0
9322 -9320 0
-3533 9323 -9320 0
9323 -9321 0
-3533 -9321 0
-3538 9324 0
9324 -9322 0
-3538 9325 -9322 0
9325 -9323 0
-3538 -9323 0
-3541 9326 0
9326 -9324 0
-3541 9327 -9324 0
9327 -9325 0
-3541 -9325 0
-3544 9328 0
9328 -9326 0
-3544 9329 -9326 0
9329 -9327 0
-3544 -9327 0
-3547 9330 0
9330 -9328 0
-3547 9331 -9328 0
9331 -9329 0
-3547 -9329 0
-3550 9332 0
9332 -9330 0
-3550 9333 -9330 0
9333 -9331 0
-3550 -9331 0
-3553 9334 0
9334 -9332 0
-3553 9335 -9332 0
9335 -9333 0
-3553 -9333 0
-3556 9336 0
9336 -9334 0
-3556 9337 -9334 0
9337 -9335 0
-3556 -9335 0
-3559 9338 0
9338 -9336 0
-3559 9339 -9336 0
9339 -9337 0
-3559 -9337 0
-3562 9340 0
9340 -9338 0
-3562 9341 -9338 0
9341 -9339 0
-3562 -9339 0
-3565 9342 0
9342 -9340 0
-3565 9343 -9340 0
9343 -9341 0
-3565 -9341 0
-3568 9344 0
9344 -9342 0
-3568 9345 -9342 0
9345 -9343 0
-3568 -9343 0
-3571 9346 0
9346 -9344 0
-3571 9347 -9344 0
9347 -9345 0
-3571 -9345 0
-3574 9348 0
9348 -9346 0
-3574 9349 -9346 0
9349 -9347 0
-3574 -9347 0
-3577 9350 0
9350 -9348 0
-3577 9351 -9348 0
9351 -9349 0
-3577 -9349 0
-3580 9352 0
9352 -9350 0
-3580 9353 -9350 0
9353 -9351 0
-3580 -9351 0
-3583 9354 0
9354 -9352 0
-3583 9355 -9352 0
9355 -9353 0
-3583 -9353 0
-3586 9356 0
9356 -9354 0
-3586 9357 -9354 0
9357 -9355 0
-3586 -9355 0
-3589 9358 0
9358 -9356 0
-3589 9359 -9356 0
9359 -9357 0
-3589 -9357 0
-3592 9360 0
9360 -9358 0
-3592 9361 -9358 0
9361 -9359 0
-3592 -9359 0
-3595 9362 0
9362 -9360 0
-3595 9363 -9360 0
9363 -9361 0
-3595 -9361 0
-3600 9364 0
9364 -9362 0
-3600 9365 -9362 0
9365 -9363 0
-3600 -9363 0
-3603 9366 0
9366 -9364 0
-3603 9367 -9364 0
9367 -9365 0
-3603 -9365 0
-3606 9368 0
9368 -9366 0
-3606 9369 -9366 0
9369 -9367 0
-3606 -9367 0
-3609 9370 0
9370 -9368 0
-3609 9371 -9368 0
9371 -9369 0
-3609 -9369 0
-3612 9372 0
9372 -9370 0
-3612 9373 -9370 0
9373 -9371 0
-3612 -9371 0
-3615 9374 0
9374 -9372 0
-3615 9375 -9372 0
9375 -9373 0
-3615 -9373 0
-3618 9376 0
9376 -9374 0
-3618 9377 -9374 0
9377 -9375 0
-3618 -9375 0
-3621 9378 0
9378 -9376 0
-3621 9379 -9376 0
9379 -9377 0
-3621 -9377 0
-3624 9380 0
9380 -9378 0
-3624 9381 -9378 0
9381 -9379 0
-3624 -9379 0
-3627 9382 0
9382 -9380 0
-3627 9383 -9380 0
9383 -9381 0
-3627 -9381 0
-3630 9384 0
9384 -9382 0
-3630 9385 -9382 0
9385 -9383 0
-3630 -9383 0
-3633 9386 0
9386 -9384 0
-3633 9387 -9384 0
9387 -9385 0
-3633 -9385 0
-3636 9388 0
9388 -9386 0
-3636 9389 -9386 0
9389 -9387 0
-3636 -9387 0
-3639 9390 0
9390 -9388 0
-3639 9391 -9388 0
9391 -9389 0
-3639 -9389 0
-3642 9392 0
9392 -9390 0
-3642 9393 -9390 0
9393 -9391 0
-3642 -9391 0
-3645 9394 0
9394 -9392 0
-3645 9395 -9392 0
9395 -9393 0
-3645 -9393 0
-3648 9396 0
9396 -9394 0
-3648 9397 -9394 0
9397 -9395 0
-3648 -9395 0
-3651 9398 0
9398 -9396 0
-3651 9399 -9396 0
9399 -9397 0
-3651 -9397 0
-3654 9400 0
9400 -9398 0
-3654 9401 -9398 0
9401 -9399 0
-3654 -9399 0
-3657 9402 0
9402 -9400 0
-3657 9403 -9400 0
9403 -9401 0
-3657 -9401 0
-3662 9404 0
9404 -9402 0
-3662 9405 -9402 0
9405 -9403 0
-3662 -9403 0
-3665 9406 0
9406 -9404 0
-3665 9407 -9404 0
9407 -9405 0
-3665 -9405 0
-3668 9408 0
9408 -9406 0
-3668 9409 -9406 0
9409 -9407 0
-3668 -9407 0
-3671 9410 0
9410 -9408 0
-3671 9411 -9408 0
9411 -9409 0
-3671 -9409 0
-3674 9412 0
9412 -9410 0
-3674 9413 -9410 0
9413 -9411 0
-3674 -9411 0
-3677 9414 0
9414 -9412 0
-3677 9415 -9412 0
9415 -9413 0
-3677 -9413 0
-3680 9416 0
9416 -9414 0
-3680 9417 -9414 0
9417 -9415 0
-3680 -9415 0
-3683 9418 0
9418 -9416 0
-3683 9419 -9416 0
9419 -9417 0
-3683 -9417 0
-3686 9420 0
9420 -9418 0
-3686 9421 -9418 0
9421 -9419 0
-3686 -9419 0
-3689 9422 0
9422 -9420 0
-3689 9423 -9420 0
9423 -9421 0
-3689 -9421 0
-3692 9424 0
9424 -9422 0
-3692 9425 -9422 0
9425 -9423 0
-3692 -9423 0
-3695 9426 0
9426 -9424 0
-3695 9427 -9424 0
9427 -9425 0
-3695 -9425 0
-3698 9428 0
9428 -9426 0
-3698 9429 -9426 0
9429 -9427 0
-3698 -9427 0
-3701 9430 0
9430 -9428 0
-3701 9431 -9428 0
9431 -9429 0
-3701 -9429 0
-3704 9432 0
9432 -9430 0
-3704 9433 -9430 0
9433 -9431 0
-3704 -9431 0
-3707 9434 0
9434 -9432 0
-3707 9435 -9432 0
9435 -9433 0
-3707 -9433 0
-3710 9436 0
9436 -9434 0
-3710 9437 -9434 0
9437 -9435 0
-3710 -9435 0
-3713 9438 0
9438 -9436 0
-3713 9439 -9436 0
9439 -9437 0
-3713 -9437 0
-3716 9440 0
9440 -9438 0
-3716 9441 -9438 0
9441 -9439 0
-3716 -9439 0
-3719 9442 0
9442 -9440 0
-3719 9443 -9440 0
9443 -9441 0
-3719 -9441 0
-3724 9444 0
9444 -9442 0
-3724 9445 -9442 0
9445 -9443 0
-3724 -9443 0
-3727 9446 0
9446 -9444 0
-3727 9447 -9444 0
9447 -9445 0
-3727 -9445 0
-3730 9448 0
9448 -9446 0
-3730 9449 -9446 0
9449 -9447 0
-3730 -9447 0
-3733 9450 0
9450 -9448 0
-3733 9451 -9448 0
9451 -9449 0
-3733 -9449 0
-3736 9452 0
9452 -9450 0
-3736 9453 -9450 0
9453 -9451 0
-3736 -9451 0
-3739 9454 0
9454 -9452 0
-3739 9455 -9452 0
9455 -9453 0
-3739 -9453 0
-3742 9456 0
9456 -9454 0
-3742 9457 -9454 0
9457 -9455 0
-3742 -9455 0
-3745 9458 0
9458 -9456 0
-3745 9459 -9456 0
9459 -9457 0
-3745 -9457 0
-3748 9460 0
9460 -9458 0
-3748 9461 -9458 0
9461 -9459 0
-3748 -9459 0
-3751 9462 0
9462 -9460 0
-3751 9463 -9460 0
9463 -9461 0
-3751 -9461 0
-3754 9464 0
9464 -9462 0
-3754 9465 -9462 0
9465 -9463 0
-3754 -9463 0
-3757 9466 0
9466 -9464 0
-3757 9467 -9464 0
9467 -9465 0
-3757 -9465 0
-3760 9468 0
9468 -9466 0
-3760 9469 -9466 0
9469 -9467 0
-3760 -9467 0
-3763 9470 0
9470 -9468 0
-3763 9471 -9468 0
9471 -9469 0
-3763 -9469 0
-3766 9472 0
9472 -9470 0
-3766 9473 -9470 0
9473 -9471 0
-3766 -9471 0
-3769 9474 0
9474 -9472 0
-3769 9475 -9472 0
9475 -9473 0
-3769 -9473 0
-3772 9476 0
9476 -9474 0
-3772 9477 -9474 0
9477 -9475 0
-3772 -9475 0
-3775 9478 0
9478 -9476 0
-3775 9479 -9476 0
9479 -9477 0
-3775 -9477 0
-3778 9480 0
9480 -9478 0
-3778 9481 -9478 0
9481 -9479 0
-3778 -9479 0
-3781 9482 0
9482 -9480 0
-3781 9483 -9480 0
9483 -9481 0
-3781 -9481 0
-3786 9484 0
9484 -9482 0
-3786 9485 -9482 0
9485 -9483 0
-3786 -9483 0
-3789 9486 0
9486 -9484 0
-3789 9487 -9484 0
9487 -9485 0
-3789 -9485 0
-3792 9488 0
9488 -9486 0
-3792 9489 -9486 0
9489 -9487 0
-3792 -9487 0
-3795 9490 0
9490 -9488 0
-3795 9491 -9488 0
9491 -9489 0
-3795 -9489 0
-3798 9492 0
9492 -9490 0
-3798 9493 -9490 0
9493 -9491 0
-3798 -9491 0
-3801 9494 0
9494 -9492 0
-3801 9495 -9492 0
9495 -9493 0
-3801 -9493 0
-3804 9496 0
9496 -9494 0
-3804 9497 -9494 0
9497 -9495 0
-3804 -9495 0
-3807 9498 0
9498 -9496 0
-3807 9499 -9496 0
9499 -9497 0
-3807 -9497 0
-3810 9500 0
9500 -9498 0
-3810 9501 -9498 0
9501 -9499 0
-3810 -9499 0
-3813 9502 0
9502 -9500 0
-3813 9503 -9500 0
9503 -9501 0
-3813 -9501 0
-3816 9504 0
9504 -9502 0
-3816 9505 -9502 0
9505 -9503 0
-3816 -9503 0
-3819 9506 0
9506 -9504 0
-3819 9507 -9504 0
9507 -9505 0
-3819 -9505 0
-3822 9508 0
9508 -9506 0
-3822 9509 -9506 0
9509 -9507 0
-3822 -9507 0
-3825 9510 0
9510 -9508 0
-3825 9511 -9508 0
9511 -9509 0
-3825 -9509 0
-3828 9512 0
9512 -9510 0
-3828 9513 -9510 0
9513 -9511 0
-3828 -9511 0
-3831 9514 0
9514 -9512 0
-3831 9515 -9512 0
9515 -9513 0
-3831 -9513 0
-3834 9516 0
9516 -9514 0
-3834 9517 -9514 0
9517 -9515 0
-3834 -9515 0
-3837 9518 0
9518 -9516 0
-3837 9519 -9516 0
9519 -9517 0
-3837 -9517 0
-3840 9520 0
9520 -9518 0
-3840 9521 -9518 0
9521 -9519 0
-3840 -9519 0
-3843 9522 0
9522 -9520 0
-3843 9523 -9520 0
9523 -9521 0
-3843 -9521 0
-3848 9524 0
9524 -9522 0
-3848 9525 -9522 0
9525 -9523 0
-3848 -9523 0
-3851 9526 0
9526 -9524 0
-3851 9527 -9524 0
9527 -9525 0
-3851 -9525 0
-3854 9528 0
9528 -9526 0
-3854 9529 -9526 0
9529 -9527 0
-3854 -9527 0
-3857 9530 0
9530 -9528 0
-3857 9531 -9528 0
9531 -9529 0
-3857 -9529 0
-3860 9532 0
9532 -9530 0
-3860 9533 -9530 0
9533 -9531 0
-3860 -9531 0
-3863 9534 0
9534 -9532 0
-3863 9535 -9532 0
9535 -9533 0
-3863 -9533 0
-3866 9536 0
9536 -9534 0
-3866 9537 -9534 0
9537 -9535 0
-3866 -9535 0
-3869 9538 0
9538 -9536 0
-3869 9539 -9536 0
9539 -9537 0
-3869 -9537 0
-3872 9540 0
9540 -9538 0
-3872 9541 -9538 0
9541 -9539 0
-3872 -9539 0
-3875 9542 0
9542 -9540 0
-3875 9543 -9540 0
9543 -9541 0
-3875 -9541 0
-3878 9544 0
9544 -9542 0
-3878 9545 -9542 0
9545 -9543 0
-3878 -9543 0
-3881 9546 0
9546 -9544 0
-3881 9547 -9544 0
9547 -9545 0
-3881 -9545 0
-3884 9548 0
9548 -9546 0
-3884 9549 -9546 0
9549 -9547 0
-3884 -9547 0
-3887 9550 0
9550 -9548 0
-3887 9551 -9548 0
9551 -9549 0
-3887 -9549 0
-3890 9552 0
9552 -9550 0
-3890 9553 -9550 0
9553 -9551 0
-3890 -9551 0
-3893 9554 0
9554 -9552 0
-3893 9555 -9552 0
9555 -9553 0
-3893 -9553 0
-3896 9556 0
9556 -9554 0
-3896 9557 -9554 0
9557 -9555 0
-3896 -9555 0
-3899 9558 0
9558 -9556 0
-3899 9559 -9556 0
9559 -9557 0
-3899 -9557 0
-3902 9560 0
9560 -9558 0
-3902 9561 -9558 0
9561 -9559 0
-3902 -9559 0
-3905 9562 0
9562 -9560 0
-3905 9563 -9560 0
9563 -9561 0
-3905 -9561 0
-3910 9564 0
9564 -9562 0
-3910 9565 -9562 0
9565 -9563 0
-3910 -9563 0
-3913 9566 0
9566 -9564 0
-3913 9567 -9564 0
9567 -9565 0
-3913 -9565 0
-3916 9568 0
9568 -9566 0
-3916 9569 -9566 0
9569 -9567 0
-3916 -9567 0
-3919 9570 0
9570 -9568 0
-3919 9571 -9568 0
9571 -9569 0
-3919 -9569 0
-3922 9572 0
9572 -9570 0
-3922 9573 -9570 0
9573 -9571 0
-3922 -9571 0
-3925 9574 0
9574 -9572 0
-3925 9575 -9572 0
9575 -9573 0
-3925 -9573 0
-3928 9576 0
9576 -9574 0
-3928 9577 -9574 0
9577 -9575 0
-3928 -9575 0
-3931 9578 0
9578 -9576 0
-3931 9579 -9576 0
9579 -9577 0
-3931 -9577 0
-3934 9580 0
9580 -9578 0
-3934 9581 -9578 0
9581 -9579 0
-3934 -9579 0
-3937 9582 0
9582 -9580 0
-3937 9583 -9580 0
9583 -9581 0
-3937 -9581 0
-3940 9584 0
9584 -9582 0
-3940 9585 -9582 0
9585 -9583 0
-3940 -9583 0
-3943 9586 0
9586 -9584 0
-3943 9587 -9584 0
9587 -9585 0
-3943 -9585 0
-3946 9588 0
9588 -9586 0
-3946 9589 -9586 0
9589 -9587 0
-3946 -9587 0
-3949 9590 0
9590 -9588 0
-3949 9591 -9588 0
9591 -9589 0
-3949 -9589 0
-3952 9592 0
9592 -9590 0
-3952 9593 -9590 0
9593 -9591 0
-3952 -9591 0
-3955 9594 0
9594 -9592 0
-3955 9595 -9592 0
9595 -9593 0
-3955 -9593 0
-3958 9596 0
9596 -9594 0
-3958 9597 -9594 0
9597 -9595 0
-3958 -9595 0
-3961 9598 0
9598 -9596 0
-3961 9599 -9596 0
9599 -9597 0
-3961 -9597 0
-3964 9600 0
9600 -9598 0
-3964 9601 -9598 0
9601 -9599 0
-3964 -9599 0
-3967 9602 0
9602 -9600 0
-3967 9603 -9600 0
9603 -9601 0
-3967 -9601 0
-3972 9604 0
9604 -9602 0
-3972 9605 -9602 0
9605 -9603 0
-3972 -9603 0
-3975 9606 0
9606 -9604 0
-3975 9607 -9604 0
9607 -9605 0
-3975 -9605 0
-3978 9608 0
9608 -9606 0
-3978 9609 -9606 0
9609 -9607 0
-3978 -9607 0
-3981 9610 0
9610 -9608 0
-3981 9611 -9608 0
9611 -9609 0
-3981 -9609 0
-3984 9612 0
9612 -9610 0
-3984 9613 -9610 0
9613 -9611 0
-3984 -9611 0
-3987 9614 0
9614 -9612 0
-3987 9615 -9612 0
9615 -9613 0
-3987 -9613 0
-3990 9616 0
9616 -9614 0
-3990 9617 -9614 0
9617 -9615 0
-3990 -9615 0
-3993 9618 0
9618 -9616 0
-3993 9619 -9616 0
9619 -9617 0
-3993 -9617 0
-3996 9620 0
9620 -9618 0
-3996 9621 -9618 0
9621 -9619 0
-3996 -9619 0
-3999 9622 0
9622 -9620 0
-3999 9623 -9620 0
9623 -9621 0
-3999 -9621 0
-4002 9624 0
9624 -9622 0
-4002 9625 -9622 0
9625 -9623 0
-4002 -9623 0
-4005 9626 0
9626 -9624 0
-4005 9627 -9624 0
9627 -9625 0
-4005 -9625 0
-4008 9628 0
9628 -9626 0
-4008 9629 -9626 0
9629 -9627 0
-4008 -9627 0
-4011 9630 0
9630 -9628 0
-4011 9631 -9628 0
9631 -9629 0
-4011 -9629 0
-4014 9632 0
9632 -9630 0
-4014 9633 -9630 0
9633 -9631 0
-4014 -9631 0
-4017 9634 0
9634 -9632 0
-4017 9635 -9632 0
9635 -9633 0
-4017 -9633 0
-4020 9636 0
9636 -9634 0
-4020 9637 -9634 0
9637 -9635 0
-4020 -9635 0
-4023 9638 0
9638 -9636 0
-4023 9639 -9636 0
9639 -9637 0
-4023 -9637 0
-4026 9640 0
9640 -9638 0
-4026 9641 -9638 0
9641 -9639 0
-4026 -9639 0
-4029 9642 0
9642 -9640 0
-4029 9643 -9640 0
9643 -9641 0
-4029 -9641 0
-4032 9644 0
9644 -9642 0
-4032 9645 -9642 0
9645 -9643 0
-4032 -9643 0
-4035 9646 0
9646 -9644 0
-4035 9647 -9644 0
9647 -9645 0
-4035 -9645 0
-4038 9648 0
9648 -9646 0
-4038 9649 -9646 0
9649 -9647 0
-4038 -9647 0
-4041 9650 0
9650 -9648 0
-4041 9651 -9648 0
9651 -9649 0
-4041 -9649 0
-4044 9652 0
9652 -9650 0
-4044 9653 -9650 0
9653 -9651 0
-4044 -9651 0
-4047 9654 0
9654 -9652 0
-4047 9655 -9652 0
9655 -9653 0
-4047 -9653 0
-4050 9656 0
9656 -9654 0
-4050 9657 -9654 0
9657 -9655 0
-4050 -9655 0
-4053 9658 0
9658 -9656 0
-4053 9659 -9656 0
9659 -9657 0
-4053 -9657 0
-4056 9660 0
9660 -9658 0
-4056 9661 -9658 0
9661 -9659 0
-4056 -9659 0
-4059 9662 0
9662 -9660 0
-4059 9663 -9660 0
9663 -9661 0
-4059 -9661 0
-4062 9664 0
9664 -9662 0
-4062 9665 -9662 0
9665 -9663 0
-4062 -9663 0
9666 -4065 0
9666 -9664 0
9667 -4065 -9664 0
9667 -9665 0
-4065 -9665 0
9668 -4066 0
9668 -9666 0
9669 -4066 -9666 0
9669 -9667 0
-4066 -9667 0
9670 -4067 0
9670 -9668 0
9671 -4067 -9668 0
9671 -9669 0
-4067 -9669 0
9672 -4068 0
9672 -9670 0
9673 -4068 -9670 0
9673 -9671 0
-4068 -9671 0
9674 -4069 0
9674 -9672 0
9675 -4069 -9672 0
9675 -9673 0
-4069 -9673 0
9676 -4070 0
9676 -9674 0
9677 -4070 -9674 0
9677 -9675 0
-4070 -9675 0
9678 -4071 0
9678 -9676 0
9679 -4071 -9676 0
9679 -9677 0
-4071 -9677 0
9680 -4072 0
9680 -9678 0
9681 -4072 -9678 0
9681 -9679 0
-4072 -9679 0
-4073 9682 0
9682 -9680 0
-4073 9683 -9680 0
9683 -9681 0
-4073 -9681 0
-4078 9684 0
9684 -9682 0
-4078 9685 -9682 0
9685 -9683 0
-4078 -9683 0
-4081 9686 0
9686 -9684 0
-4081 9687 -9684 0
9687 -9685 0
-4081 -9685 0
-4084 9688 0
9688 -9686 0
-4084 9689 -9686 0
9689 -9687 0
-4084 -9687 0
-4087 9690 0
9690 -9688 0
-4087 9691 -9688 0
9691 -9689 0
-4087 -9689 0
-4090 9692 0
9692 -9690 0
-4090 9693 -9690 0
9693 -9691 0
-4090 -9691 0
-4093 9694 0
9694 -9692 0
-4093 9695 -9692 0
9695 -9693 0
-4093 -9693 0
-4096 9696 0
9696 -9694 0
-4096 9697 -9694 0
9697 -9695 0
-4096 -9695 0
-4099 9698 0
9698 -9696 0
-4099 9699 -9696 0
9699 -9697 0
-4099 -9697 0
-4102 9700 0
9700 -9698 0
-4102 9701 -9698 0
9701 -9699 0
-4102 -9699 0
-4105 9702 0
9702 -9700 0
-4105 9703 -9700 0
9703 -9701 0
-4105 -9701 0
-4108 9704 0
9704 -9702 0
-4108 9705 -9702 0
9705 -9703 0
-4108 -9703 0
-4111 9706 0
9706 -9704 0
-4111 9707 -9704 0
9707 -9705 0
-4111 -9705 0
-4114 9708 0
9708 -9706 0
-4114 9709 -9706 0
9709 -9707 0
-4114 -9707 0
-4117 9710 0
9710 -9708 0
-4117 9711 -9708 0
9711 -9709 0
-4117 -9709 0
-4120 9712 0
9712 -9710 0
-4120 9713 -9710 0
9713 -9711 0
-4120 -9711 0
-4123 9714 0
9714 -9712 0
-4123 9715 -9712 0
9715 -9713 0
-4123 -9713 0
-4128 9716 0
9716 -9714 0
-4128 9717 -9714 0
9717 -9715 0
-4128 -9715 0
-4131 9718 0
9718 -9716 0
-4131 9719 -9716 0
9719 -9717 0
-4131 -9717 0
-4134 9720 0
9720 -9718 0
-4134 9721 -9718 0
9721 -9719 0
-4134 -9719 0
-4137 9722 0
9722 -9720 0
-4137 9723 -9720 0
9723 -9721 0
-4137 -9721 0
-4140 9724 0
9724 -9722 0
-4140 9725 -9722 0
9725 -9723 0
-4140 -9723 0
-4143 9726 0
9726 -9724 0
-4143 9727 -9724 0
9727 -9725 0
-4143 -9725 0
-4146 9728 0
9728 -9726 0
-4146 9729 -9726 0
9729 -9727 0
-4146 -9727 0
-4149 9730 0
9730 -9728 0
-4149 9731 -9728 0
9731 -9729 0
-4149 -9729 0
-4152 9732 0
9732 -9730 0
-4152 9733 -9730 0
9733 -9731 0
-4152 -9731 0
-4155 9734 0
9734 -9732 0
-4155 9735 -9732 0
9735 -9733 0
-4155 -9733 0
-4158 9736 0
9736 -9734 0
-4158 9737 -9734 0
9737 -9735 0
-4158 -9735 0
-4161 9738 0
9738 -9736 0
-4161 9739 -9736 0
9739 -9737 0
-4161 -9737 0
-4164 9740 0
9740 -9738 0
-4164 9741 -9738 0
9741 -9739 0
-4164 -9739 0
-4167 9742 0
9742 -9740 0
-4167 9743 -9740 0
9743 -9741 0
-4167 -9741 0
-4170 9744 0
9744 -9742 0
-4170 9745 -9742 0
9745 -9743 0
-4170 -9743 0
-4173 9746 0
9746 -9744 0
-4173 9747 -9744 0
9747 -9745 0
-4173 -9745 0
-4178 9748 0
9748 -9746 0
-4178 9749 -9746 0
9749 -9747 0
-4178 -9747 0
-4181 9750 0
9750 -9748 0
-4181 9751 -9748 0
9751 -9749 0
-4181 -9749 0
-4184 9752 0
9752 -9750 0
-4184 9753 -9750 0
9753 -9751 0
-4184 -9751 0
-4187 9754 0
9754 -9752 0
-4187 9755 -9752 0
9755 -9753 0
-4187 -9753 0
-4190 9756 0
9756 -9754 0
-4190 9757 -9754 0
9757 -9755 0
-4190 -9755 0
-4193 9758 0
9758 -9756 0
-4193 9759 -9756 0
9759 -9757 0
-4193 -9757 0
-4196 9760 0
9760 -9758 0
-4196 9761 -9758 0
9761 -9759 0
-4196 -9759 0
-4199 9762 0
9762 -9760 0
-4199 9763 -9760 0
9763 -9761 0
-4199 -9761 0
-4202 9764 0
9764 -9762 0
-4202 9765 -9762 0
9765 -9763 0
-4202 -9763 0
-4205 9766 0
9766 -9764 0
-4205 9767 -9764 0
9767 -9765 0
-4205 -9765 0
-4208 9768 0
9768 -9766 0
-4208 9769 -9766 0
9769 -9767 0
-4208 -9767 0
-4211 9770 0
9770 -9768 0
-4211 9771 -9768 0
9771 -9769 0
-4211 -9769 0
-4214 9772 0
9772 -9770 0
-4214 9773 -9770 0
9773 -9771 0
-4214 -9771 0
-4217 9774 0
9774 -9772 0
-4217 9775 -9772 0
9775 -9773 0
-4217 -9773 0
-4220 9776 0
9776 -9774 0
-4220 9777 -9774 0
9777 -9775 0
-4220 -9775 0
-4223 9778 0
9778 -9776 0
-4223 9779 -9776 0
9779 -9777 0
-4223 -9777 0
-4228 9780 0
9780 -9778 0
-4228 9781 -9778 0
9781 -9779 0
-4228 -9779 0
-4231 9782 0
9782 -9780 0
-4231 9783 -9780 0
9783 -9781 0
-4231 -9781 0
-4234 9784 0
9784 -9782 0
-4234 9785 -9782 0
9785 -9783 0
-4234 -9783 0
-4237 9786 0
9786 -9784 0
-4237 9787 -9784 0
9787 -9785 0
-4237 -9785 0
-4240 9788 0
9788 -9786 0
-4240 9789 -9786 0
9789 -9787 0
-4240 -9787 0
-4243 9790 0
9790 -9788 0
-4243 9791 -9788 0
9791 -9789 0
-4243 -9789 0
-4246 9792 0
9792 -9790 0
-4246 9793 -9790 0
9793 -9791 0
-4246 -9791 0
-4249 9794 0
9794 -9792 0
-4249 9795 -9792 0
9795 -9793 0
-4249 -9793 0
-4252 9796 0
9796 -9794 0
-4252 9797 -9794 0
9797 -9795 0
-4252 -9795 0
-4255 9798 0
9798 -9796 0
-4255 9799 -9796 0
9799 -9797 0
-4255 -9797 0
-4258 9800 0
9800 -9798 0
-4258 9801 -9798 0
9801 -9799 0
-4258 -9799 0
-4261 9802 0
9802 -9800 0
-4261 9803 -9800 0
9803 -9801 0
-4261 -9801 0
-4264 9804 0
9804 -9802 0
-4264 9805 -9802 0
9805 -9803 0
-4264 -9803 0
-4267 9806 0
9806 -9804 0
-4267 9807 -9804 0
9807 -9805 0
-4267 -9805 0
-4270 9808 0
9808 -9806 0
-4270 9809 -9806 0
9809 -9807 0
-4270 -9807 0
-4273 9810 0
9810 -9808 0
-4273 9811 -9808 0
9811 -9809 0
-4273 -9809 0
-4278 9812 0
9812 -9810 0
-4278 9813 -9810 0
9813 -9811 0
-4278 -9811 0
-4281 9814 0
9814 -9812 0
-4281 9815 -9812 0
9815 -9813 0
-4281 -9813 0
-4284 9816 0
9816 -9814 0
-4284 9817 -9814 0
9817 -9815 0
-4284 -9815 0
-4287 9818 0
9818 -9816 0
-4287 9819 -9816 0
9819 -9817 0
-4287 -9817 0
-4290 9820 0
9820 -9818 0
-4290 9821 -9818 0
9821 -9819 0
-4290 -9819 0
-4293 9822 0
9822 -9820 0
-4293 9823 -9820 0
9823 -9821 0
-4293 -9821 0
-4296 9824 0
9824 -9822 0
-4296 9825 -9822 0
9825 -9823 0
-4296 -9823 0
-4299 9826 0
9826 -9824 0
-4299 9827 -9824 0
9827 -9825 0
-4299 -9825 0
-4302 9828 0
9828 -9826 0
-4302 9829 -9826 0
9829 -9827 0
-4302 -9827 0
-4305 9830 0
9830 -9828 0
-4305 9831 -9828 0
9831 -9829 0
-4305 -9829 0
-4308 9832 0
9832 -9830 0
-4308 9833 -9830 0
9833 -9831 0
-4308 -9831 0
-4311 9834 0
9834 -9832 0
-4311 9835 -9832 0
9835 -9833 0
-4311 -9833 0
-4314 9836 0
9836 -9834 0
-4314 9837 -9834 0
9837 -9835 0
-4314 -9835 0
-4317 9838 0
9838 -9836 0
-4317 9839 -9836 0
9839 -9837 0
-4317 -9837 0
-4320 9840 0
9840 -9838 0
-4320 9841 -9838 0
9841 -9839 0
-4320 -9839 0
-4323 9842 0
9842 -9840 0
-4323 9843 -9840 0
9843 -9841 0
-4323 -9841 0
-4328 9844 0
9844 -9842 0
-4328 9845 -9842 0
9845 -9843 0
-4328 -9843 0
-4331 9846 0
9846 -9844 0
-4331 9847 -9844 0
9847 -9845 0
-4331 -9845 0
-4334 9848 0
9848 -9846 0
-4334 9849 -9846 0
9849 -9847 0
-4334 -9847 0
-4337 9850 0
9850 -9848 0
-4337 9851 -9848 0
9851 -9849 0
-4337 -9849 0
-4340 9852 0
9852 -9850 0
-4340 9853 -9850 0
9853 -9851 0
-4340 -9851 0
-4343 9854 0
9854 -9852 0
-4343 9855 -9852 0
9855 -9853 0
-4343 -9853 0
-4346 9856 0
9856 -9854 0
-4346 9857 -9854 0
9857 -9855 0
-4346 -9855 0
-4349 9858 0
9858 -9856 0
-4349 9859 -9856 0
9859 -9857 0
-4349 -9857 0
-4352 9860 0
9860 -9858 0
-4352 9861 -9858 0
9861 -9859 0
-4352 -9859 0
-4355 9862 0
9862 -9860 0
-4355 9863 -9860 0
9863 -9861 0
-4355 -9861 0
-4358 9864 0
9864 -9862 0
-4358 9865 -9862 0
9865 -9863 0
-4358 -9863 0
-4361 9866 0
9866 -9864 0
-4361 9867 -9864 0
9867 -9865 0
-4361 -9865 0
-4364 9868 0
9868 -9866 0
-4364 9869 -9866 0
9869 -9867 0
-4364 -9867 0
-4367 9870 0
9870 -9868 0
-4367 9871 -9868 0
9871 -9869 0
-4367 -9869 0
-4370 9872 0
9872 -9870 0
-4370 9873 -9870 0
9873 -9871 0
-4370 -9871 0
-4373 9874 0
9874 -9872 0
-4373 9875 -9872 0
9875 -9873 0
-4373 -9873 0
-4378 9876 0
9876 -9874 0
-4378 9877 -9874 0
9877 -9875 0
-4378 -9875 0
-4381 9878 0
9878 -9876 0
-4381 9879 -9876 0
9879 -9877 0
-4381 -9877 0
-4384 9880 0
9880 -9878 0
-4384 9881 -9878 0
9881 -9879 0
-4384 -9879 0
-4387 9882 0
9882 -9880 0
-4387 9883 -9880 0
9883 -9881 0
-4387 -9881 0
-4390 9884 0
9884 -9882 0
-4390 9885 -9882 0
9885 -9883 0
-4390 -9883 0
-4393 9886 0
9886 -9884 0
-4393 9887 -9884 0
9887 -9885 0
-4393 -9885 0
-4396 9888 0
9888 -9886 0
-4396 9889 -9886 0
9889 -9887 0
-4396 -9887 0
-4399 9890 0
9890 -9888 0
-4399 9891 -9888 0
9891 -9889 0
-4399 -9889 0
-4402 9892 0
9892 -9890 0
-4402 9893 -9890 0
9893 -9891 0
-4402 -9891 0
-4405 9894 0
9894 -9892 0
-4405 9895 -9892 0
9895 -9893 0
-4405 -9893 0
-4408 9896 0
9896 -9894 0
-4408 9897 -9894 0
9897 -9895 0
-4408 -9895 0
-4411 9898 0
9898 -9896 0
-4411 9899 -9896 0
9899 -9897 0
-4411 -9897 0
-4414 9900 0
9900 -9898 0
-4414 9901 -9898 0
9901 -9899 0
-4414 -9899 0
-4417 9902 0
9902 -9900 0
-4417 9903 -9900 0
9903 -9901 0
-4417 -9901 0
-4420 9904 0
9904 -9902 0
-4420 9905 -9902 0
9905 -9903 0
-4420 -9903 0
-4423 9906 0
9906 -9904 0
-4423 9907 -9904 0
9907 -9905 0
-4423 -9905 0
-4428 9908 0
9908 -9906 0
-4428 9909 -9906 0
9909 -9907 0
-4428 -9907 0
-4431 9910 0
9910 -9908 0
-4431 9911 -9908 0
9911 -9909 0
-4431 -9909 0
-4434 9912 0
9912 -9910 0
-4434 9913 -9910 0
9913 -9911 0
-4434 -9911 0
-4437 9914 0
9914 -9912 0
-4437 9915 -9912 0
9915 -9913 0
-4437 -9913 0
-4440 9916 0
9916 -9914 0
-4440 9917 -9914 0
9917 -9915 0
-4440 -9915 0
-4443 9918 0
9918 -9916 0
-4443 9919 -9916 0
9919 -9917 0
-4443 -9917 0
-4446 9920 0
9920 -9918 0
-4446 9921 -9918 0
9921 -9919 0
-4446 -9919 0
-4449 9922 0
9922 -9920 0
-4449 9923 -9920 0
9923 -9921 0
-4449 -9921 0
-4452 9924 0
9924 -9922 0
-4452 9925 -9922 0
9925 -9923 0
-4452 -9923 0
-4455 9926 0
9926 -9924 0
-4455 9927 -9924 0
9927 -9925 0
-4455 -9925 0
-4458 9928 0
9928 -9926 0
-4458 9929 -9926 0
9929 -9927 0
-4458 -9927 0
-4461 9930 0
9930 -9928 0
-4461 9931 -9928 0
9931 -9929 0
-4461 -9929 0
-4464 9932 0
9932 -9930 0
-4464 9933 -9930 0
9933 -9931 0
-4464 -9931 0
-4467 9934 0
9934 -9932 0
-4467 9935 -9932 0
9935 -9933 0
-4467 -9933 0
-4470 9936 0
9936 -9934 0
-4470 9937 -9934 0
9937 -9935 0
-4470 -9935 0
-4473 9938 0
9938 -9936 0
-4473 9939 -9936 0
9939 -9937 0
-4473 -9937 0
-4478 9940 0
9940 -9938 0
-4478 9941 -9938 0
9941 -9939 0
-4478 -9939 0
-4481 9942 0
9942 -9940 0
-4481 9943 -9940 0
9943 -9941 0
-4481 -9941 0
-4484 9944 0
9944 -9942 0
-4484 9945 -9942 0
9945 -9943 0
-4484 -9943 0
-4487 9946 0
9946 -9944 0
-4487 9947 -9944 0
9947 -9945 0
-4487 -9945 0
-4490 9948 0
9948 -9946 0
-4490 9949 -9946 0
9949 -9947 0
-4490 -9947 0
-4493 9950 0
9950 -9948 0
-4493 9951 -9948 0
9951 -9949 0
-4493 -9949 0
-4496 9952 0
9952 -9950 0
-4496 9953 -9950 0
9953 -9951 0
-4496 -9951 0
-4499 9954 0
9954 -9952 0
-4499 9955 -9952 0
9955 -9953 0
-4499 -9953 0
-4502 9956 0
9956 -9954 0
-4502 9957 -9954 0
9957 -9955 0
-4502 -9955 0
-4505 9958 0
9958 -9956 0
-4505 9959 -9956 0
9959 -9957 0
-4505 -9957 0
-4508 9960 0
9960 -9958 0
-4508 9961 -9958 0
9961 -9959 0
-4508 -9959 0
-4511 9962 0
9962 -9960 0
-4511 9963 -9960 0
9963 -9961 0
-4511 -9961 0
-4514 9964 0
9964 -9962 0
-4514 9965 -9962 0
9965 -9963 0
-4514 -9963 0
-4517 9966 0
9966 -9964 0
-4517 9967 -9964 0
9967 -9965 0
-4517 -9965 0
-4520 9968 0
9968 -9966 0
-4520 9969 -9966 0
9969 -9967 0
-4520 -9967 0
-4523 9970 0
9970 -9968 0
-4523 9971 -9968 0
9971 -9969 0
-4523 -9969 0
-4528 9972 0
9972 -9970 0
-4528 9973 -9970 0
9973 -9971 0
-4528 -9971 0
-4531 9974 0
9974 -9972 0
-4531 9975 -9972 0
9975 -9973 0
-4531 -9973 0
-4534 9976 0
9976 -9974 0
-4534 9977 -9974 0
9977 -9975 0
-4534 -9975 0
-4537 9978 0
9978 -9976 0
-4537 9979 -9976 0
9979 -9977 0
-4537 -9977 0
-4540 9980 0
9980 -9978 0
-4540 9981 -9978 0
9981 -9979 0
-4540 -9979 0
-4543 9982 0
9982 -9980 0
-4543 9983 -9980 0
9983 -9981 0
-4543 -9981 0
-4546 9984 0
9984 -9982 0
-4546 9985 -9982 0
9985 -9983 0
-4546 -9983 0
-4549 9986 0
9986 -9984 0
-4549 9987 -9984 0
9987 -9985 0
-4549 -9985 0
-4552 9988 0
9988 -9986 0
-4552 9989 -9986 0
9989 -9987 0
-4552 -9987 0
-4555 9990 0
9990 -9988 0
-4555 9991 -9988 0
9991 -9989 0
-4555 -9989 0
-4558 9992 0
9992 -9990 0
-4558 9993 -9990 0
9993 -9991 0
-4558 -9991 0
-4561 9994 0
9994 -9992 0
-4561 9995 -9992 0
9995 -9993 0
-4561 -9993 0
-4564 9996 0
9996 -9994 0
-4564 9997 -9994 0
9997 -9995 0
-4564 -9995 0
-4567 9998 0
9998 -9996 0
-4567 9999 -9996 0
9999 -9997 0
-4567 -9997 0
-4570 10000 0
10000 -9998 0
-4570 10001 -9998 0
10001 -9999 0
-4570 -9999 0
-4573 10002 0
10002 -10000 0
-4573 10003 -10000 0
10003 -10001 0
-4573 -10001 0
-4578 10004 0
10004 -10002 0
-4578 10005 -10002 0
10005 -10003 0
-4578 -10003 0
-4581 10006 0
10006 -10004 0
-4581 10007 -10004 0
10007 -10005 0
-4581 -10005 0
-4584 10008 0
10008 -10006 0
-4584 10009 -10006 0
10009 -10007 0
-4584 -10007 0
-4587 10010 0
10010 -10008 0
-4587 10011 -10008 0
10011 -10009 0
-4587 -10009 0
-4590 10012 0
10012 -10010 0
-4590 10013 -10010 0
10013 -10011 0
-4590 -10011 0
-4593 10014 0
10014 -10012 0
-4593 10015 -10012 0
10015 -10013 0
-4593 -10013 0
-4596 10016 0
10016 -10014 0
-4596 10017 -10014 0
10017 -10015 0
-4596 -10015 0
-4599 10018 0
10018 -10016 0
-4599 10019 -10016 0
10019 -10017 0
-4599 -10017 0
-4602 10020 0
10020 -10018 0
-4602 10021 -10018 0
10021 -10019 0
-4602 -10019 0
-4605 10022 0
10022 -10020 0
-4605 10023 -10020 0
10023 -10021 0
-4605 -10021 0
-4608 10024 0
10024 -10022 0
-4608 10025 -10022 0
10025 -10023 0
-4608 -10023 0
-4611 10026 0
10026 -10024 0
-4611 10027 -10024 0
10027 -10025 0
-4611 -10025 0
-4614 10028 0
10028 -10026 0
-4614 10029 -10026 0
10029 -10027 0
-4614 -10027 0
-4617 10030 0
10030 -10028 0
-4617 10031 -10028 0
10031 -10029 0
-4617 -10029 0
-4620 10032 0
10032 -10030 0
-4620 10033 -10030 0
10033 -10031 0
-4620 -10031 0
-4623 10034 0
10034 -10032 0
-4623 10035 -10032 0
10035 -10033 0
-4623 -10033 0
-4628 10036 0
10036 -10034 0
-4628 10037 -10034 0
10037 -10035 0
-4628 -10035 0
-4631 10038 0
10038 -10036 0
-4631 10039 -10036 0
10039 -10037 0
-4631 -10037 0
-4634 10040 0
10040 -10038 0
-4634 10041 -10038 0
10041 -10039 0
-4634 -10039 0
-4637 10042 0
10042 -10040 0
-4637 10043 -10040 0
10043 -10041 0
-4637 -10041 0
-4640 10044 0
10044 -10042 0
-4640 10045 -10042 0
10045 -10043 0
-4640 -10043 0
-4643 10046 0
10046 -10044 0
-4643 10047 -10044 0
10047 -10045 0
-4643 -10045 0
-4646 10048 0
10048 -10046 0
-4646 10049 -10046 0
10049 -10047 0
-4646 -10047 0
-4649 10050 0
10050 -10048 0
-4649 10051 -10048 0
10051 -10049 0
-4649 -10049 0
-4652 10052 0
10052 -10050 0
-4652 10053 -10050 0
10053 -10051 0
-4652 -10051 0
-4655 10054 0
10054 -10052 0
-4655 10055 -10052 0
10055 -10053 0
-4655 -10053 0
-4658 10056 0
10056 -10054 0
-4658 10057 -10054 0
10057 -10055 0
-4658 -10055 0
-4661 10058 0
10058 -10056 0
-4661 10059 -10056 0
10059 -10057 0
-4661 -10057 0
-4664 10060 0
10060 -10058 0
-4664 10061 -10058 0
10061 -10059 0
-4664 -10059 0
-4667 10062 0
10062 -10060 0
-4667 10063 -10060 0
10063 -10061 0
-4667 -10061 0
-4670 10064 0
10064 -10062 0
-4670 10065 -10062 0
10065 -10063 0
-4670 -10063 0
-4673 10066 0
10066 -10064 0
-4673 10067 -10064 0
10067 -10065 0
-4673 -10065 0
-4678 10068 0
10068 -10066 0
-4678 10069 -10066 0
10069 -10067 0
-4678 -10067 0
-4681 10070 0
10070 -10068 0
-4681 10071 -10068 0
10071 -10069 0
-4681 -10069 0
-4684 10072 0
10072 -10070 0
-4684 10073 -10070 0
10073 -10071 0
-4684 -10071 0
-4687 10074 0
10074 -10072 0
-4687 10075 -10072 0
10075 -10073 0
-4687 -10073 0
-4690 10076 0
10076 -10074 0
-4690 10077 -10074 0
10077 -10075 0
-4690 -10075 0
-4693 10078 0
10078 -10076 0
-4693 10079 -10076 0
10079 -10077 0
-4693 -10077 0
-4696 10080 0
10080 -10078 0
-4696 10081 -10078 0
10081 -10079 0
-4696 -10079 0
-4699 10082 0
10082 -10080 0
-4699 10083 -10080 0
10083 -10081 0
-4699 -10081 0
-4702 10084 0
10084 -10082 0
-4702 10085 -10082 0
10085 -10083 0
-4702 -10083 0
-4705 10086 0
10086 -10084 0
-4705 10087 -10084 0
10087 -10085 0
-4705 -10085 0
-4708 10088 0
10088 -10086 0
-4708 10089 -10086 0
10089 -10087 0
-4708 -10087 0
-4711 10090 0
10090 -10088 0
-4711 10091 -10088 0
10091 -10089 0
-4711 -10089 0
-4714 10092 0
10092 -10090 0
-4714 10093 -10090 0
10093 -10091 0
-4714 -10091 0
-4717 10094 0
10094 -10092 0
-4717 10095 -10092 0
10095 -10093 0
-4717 -10093 0
-4720 10096 0
10096 -10094 0
-4720 10097 -10094 0
10097 -10095 0
-4720 -10095 0
-4723 10098 0
10098 -10096 0
-4723 10099 -10096 0
10099 -10097 0
-4723 -10097 0
-4728 10100 0
10100 -10098 0
-4728 10101 -10098 0
10101 -10099 0
-4728 -10099 0
-4731 10102 0
10102 -10100 0
-4731 10103 -10100 0
10103 -10101 0
-4731 -10101 0
-4734 10104 0
10104 -10102 0
-4734 10105 -10102 0
10105 -10103 0
-4734 -10103 0
-4737 10106 0
10106 -10104 0
-4737 10107 -10104 0
10107 -10105 0
-4737 -10105 0
-4740 10108 0
10108 -10106 0
-4740 10109 -10106 0
10109 -10107 0
-4740 -10107 0
-4743 10110 0
10110 -10108 0
-4743 10111 -10108 0
10111 -10109 0
-4743 -10109 0
-4746 10112 0
10112 -10110 0
-4746 10113 -10110 0
10113 -10111 0
-4746 -10111 0
-4749 10114 0
10114 -10112 0
-4749 10115 -10112 0
10115 -10113 0
-4749 -10113 0
-4752 10116 0
10116 -10114 0
-4752 10117 -10114 0
10117 -10115 0
-4752 -10115 0
-4755 10118 0
10118 -10116 0
-4755 10119 -10116 0
10119 -10117 0
-4755 -10117 0
-4758 10120 0
10120 -10118 0
-4758 10121 -10118 0
10121 -10119 0
-4758 -10119 0
-4761 10122 0
10122 -10120 0
-4761 10123 -10120 0
10123 -10121 0
-4761 -10121 0
-4764 10124 0
10124 -10122 0
-4764 10125 -10122 0
10125 -10123 0
-4764 -10123 0
-4767 10126 0
10126 -10124 0
-4767 10127 -10124 0
10127 -10125 0
-4767 -10125 0
-4770 10128 0
10128 -10126 0
-4770 10129 -10126 0
10129 -10127 0
-4770 -10127 0
-4773 10130 0
10130 -10128 0
-4773 10131 -10128 0
10131 -10129 0
-4773 -10129 0
-4778 10132 0
10132 -10130 0
-4778 10133 -10130 0
10133 -10131 0
-4778 -10131 0
-4781 10134 0
10134 -10132 0
-4781 10135 -10132 0
10135 -10133 0
-4781 -10133 0
-4784 10136 0
10136 -10134 0
-4784 10137 -10134 0
10137 -10135 0
-4784 -10135 0
-4787 10138 0
10138 -10136 0
-4787 10139 -10136 0
10139 -10137 0
-4787 -10137 0
-4790 10140 0
10140 -10138 0
-4790 10141 -10138 0
10141 -10139 0
-4790 -10139 0
-4793 10142 0
10142 -10140 0
-4793 10143 -10140 0
10143 -10141 0
-4793 -10141 0
-4796 10144 0
10144 -10142 0
-4796 10145 -10142 0
10145 -10143 0
-4796 -10143 0
-4799 10146 0
10146 -10144 0
-4799 10147 -10144 0
10147 -10145 0
-4799 -10145 0
-4802 10148 0
10148 -10146 0
-4802 10149 -10146 0
10149 -10147 0
-4802 -10147 0
-4805 10150 0
10150 -10148 0
-4805 10151 -10148 0
10151 -10149 0
-4805 -10149 0
-4808 10152 0
10152 -10150 0
-4808 10153 -10150 0
10153 -10151 0
-4808 -10151 0
-4811 10154 0
10154 -10152 0
-4811 10155 -10152 0
10155 -10153 0
-4811 -10153 0
-4814 10156 0
10156 -10154 0
-4814 10157 -10154 0
10157 -10155 0
-4814 -10155 0
-4817 10158 0
10158 -10156 0
-4817 10159 -10156 0
10159 -10157 0
-4817 -10157 0
-4820 10160 0
10160 -10158 0
-4820 10161 -10158 0
10161 -10159 0
-4820 -10159 0
-4823 10162 0
10162 -10160 0
-4823 10163 -10160 0
10163 -10161 0
-4823 -10161 0
-4828 10164 0
10164 -10162 0
-4828 10165 -10162 0
10165 -10163 0
-4828 -10163 0
-4831 10166 0
10166 -10164 0
-4831 10167 -10164 0
10167 -10165 0
-4831 -10165 0
-4834 10168 0
10168 -10166 0
-4834 10169 -10166 0
10169 -10167 0
-4834 -10167 0
-4837 10170 0
10170 -10168 0
-4837 10171 -10168 0
10171 -10169 0
-4837 -10169 0
-4840 10172 0
10172 -10170 0
-4840 10173 -10170 0
10173 -10171 0
-4840 -10171 0
-4843 10174 0
10174 -10172 0
-4843 10175 -10172 0
10175 -10173 0
-4843 -10173 0
-4846 10176 0
10176 -10174 0
-4846 10177 -10174 0
10177 -10175 0
-4846 -10175 0
-4849 10178 0
10178 -10176 0
-4849 10179 -10176 0
10179 -10177 0
-4849 -10177 0
-4852 10180 0
10180 -10178 0
-4852 10181 -10178 0
10181 -10179 0
-4852 -10179 0
-4855 10182 0
10182 -10180 0
-4855 10183 -10180 0
10183 -10181 0
-4855 -10181 0
-4858 10184 0
10184 -10182 0
-4858 10185 -10182 0
10185 -10183 0
-4858 -10183 0
-4861 10186 0
10186 -10184 0
-4861 10187 -10184 0
10187 -10185 0
-4861 -10185 0
-4864 10188 0
10188 -10186 0
-4864 10189 -10186 0
10189 -10187 0
-4864 -10187 0
-4867 10190 0
10190 -10188 0
-4867 10191 -10188 0
10191 -10189 0
-4867 -10189 0
-4870 10192 0
10192 -10190 0
-4870 10193 -10190 0
10193 -10191 0
-4870 -10191 0
-4873 10194 0
10194 -10192 0
-4873 10195 -10192 0
10195 -10193 0
-4873 -10193 0
-4878 10196 0
10196 -10194 0
-4878 10197 -10194 0
10197 -10195 0
-4878 -10195 0
-4881 10198 0
10198 -10196 0
-4881 10199 -10196 0
10199 -10197 0
-4881 -10197 0
-4884 10200 0
10200 -10198 0
-4884 10201 -10198 0
10201 -10199 0
-4884 -10199 0
-4887 10202 0
10202 -10200 0
-4887 10203 -10200 0
10203 -10201 0
-4887 -10201 0
-4890 10204 0
10204 -10202 0
-4890 10205 -10202 0
10205 -10203 0
-4890 -10203 0
-4893 10206 0
10206 -10204 0
-4893 10207 -10204 0
10207 -10205 0
-4893 -10205 0
-4896 10208 0
10208 -10206 0
-4896 10209 -10206 0
10209 -10207 0
-4896 -10207 0
-4899 10210 0
10210 -10208 0
-4899 10211 -10208 0
10211 -10209 0
-4899 -10209 0
-4902 10212 0
10212 -10210 0
-4902 10213 -10210 0
10213 -10211 0
-4902 -10211 0
-4905 10214 0
10214 -10212 0
-4905 10215 -10212 0
10215 -10213 0
-4905 -10213 0
-4908 10216 0
10216 -10214 0
-4908 10217 -10214 0
10217 -10215 0
-4908 -10215 0
-4911 10218 0
10218 -10216 0
-4911 10219 -10216 0
10219 -10217 0
-4911 -10217 0
-4914 10220 0
10220 -10218 0
-4914 10221 -10218 0
10221 -10219 0
-4914 -10219 0
-4917 10222 0
10222 -10220 0
-4917 10223 -10220 0
10223 -10221 0
-4917 -10221 0
-4920 10224 0
10224 -10222 0
-4920 10225 -10222 0
10225 -10223 0
-4920 -10223 0
-4923 10226 0
10226 -10224 0
-4923 10227 -10224 0
10227 -10225 0
-4923 -10225 0
-4928 10228 0
10228 -10226 0
-4928 10229 -10226 0
10229 -10227 0
-4928 -10227 0
-4931 10230 0
10230 -10228 0
-4931 10231 -10228 0
10231 -10229 0
-4931 -10229 0
-4934 10232 0
10232 -10230 0
-4934 10233 -10230 0
10233 -10231 0
-4934 -10231 0
-4937 10234 0
10234 -10232 0
-4937 10235 -10232 0
10235 -10233 0
-4937 -10233 0
-4940 10236 0
10236 -10234 0
-4940 10237 -10234 0
10237 -10235 0
-4940 -10235 0
-4943 10238 0
10238 -10236 0
-4943 10239 -10236 0
10239 -10237 0
-4943 -10237 0
-4946 10240 0
10240 -10238 0
-4946 10241 -10238 0
10241 -10239 0
-4946 -10239 0
-4949 10242 0
10242 -10240 0
-4949 10243 -10240 0
10243 -10241 0
-4949 -10241 0
-4952 10244 0
10244 -10242 0
-4952 10245 -10242 0
10245 -10243 0
-4952 -10243 0
-4955 10246 0
10246 -10244 0
-4955 10247 -10244 0
10247 -10245 0
-4955 -10245 0
-4958 10248 0
10248 -10246 0
-4958 10249 -10246 0
10249 -10247 0
-4958 -10247 0
-4961 10250 0
10250 -10248 0
-4961 10251 -10248 0
10251 -10249 0
-4961 -10249 0
-4964 10252 0
10252 -10250 0
-4964 10253 -10250 0
10253 -10251 0
-4964 -10251 0
-4967 10254 0
10254 -10252 0
-4967 10255 -10252 0
10255 -10253 0
-4967 -10253 0
-4970 10256 0
10256 -10254 0
-4970 10257 -10254 0
10257 -10255 0
-4970 -10255 0
-4973 10258 0
10258 -10256 0
-4973 10259 -10256 0
10259 -10257 0
-4973 -10257 0
-4978 10260 0
10260 -10258 0
-4978 10261 -10258 0
10261 -10259 0
-4978 -10259 0
-4981 10262 0
10262 -10260 0
-4981 10263 -10260 0
10263 -10261 0
-4981 -10261 0
-4984 10264 0
10264 -10262 0
-4984 10265 -10262 0
10265 -10263 0
-4984 -10263 0
-4987 10266 0
10266 -10264 0
-4987 10267 -10264 0
10267 -10265 0
-4987 -10265 0
-4990 10268 0
10268 -10266 0
-4990 10269 -10266 0
10269 -10267 0
-4990 -10267 0
-4993 10270 0
10270 -10268 0
-4993 10271 -10268 0
10271 -10269 0
-4993 -10269 0
-4996 10272 0
10272 -10270 0
-4996 10273 -10270 0
10273 -10271 0
-4996 -10271 0
-4999 10274 0
10274 -10272 0
-4999 10275 -10272 0
10275 -10273 0
-4999 -10273 0
-5002 10276 0
10276 -10274 0
-5002 10277 -10274 0
10277 -10275 0
-5002 -10275 0
-5005 10278 0
10278 -10276 0
-5005 10279 -10276 0
10279 -10277 0
-5005 -10277 0
-5008 10280 0
10280 -10278 0
-5008 10281 -10278 0
10281 -10279 0
-5008 -10279 0
-5011 10282 0
10282 -10280 0
-5011 10283 -10280 0
10283 -10281 0
-5011 -10281 0
-5014 10284 0
10284 -10282 0
-5014 10285 -10282 0
10285 -10283 0
-5014 -10283 0
-5017 10286 0
10286 -10284 0
-5017 10287 -10284 0
10287 -10285 0
-5017 -10285 0
-5020 10288 0
10288 -10286 0
-5020 10289 -10286 0
10289 -10287 0
-5020 -10287 0
-5023 10290 0
10290 -10288 0
-5023 10291 -10288 0
10291 -10289 0
-5023 -10289 0
-5028 10292 0
10292 -10290 0
-5028 10293 -10290 0
10293 -10291 0
-5028 -10291 0
-5031 10294 0
10294 -10292 0
-5031 10295 -10292 0
10295 -10293 0
-5031 -10293 0
-5034 10296 0
10296 -10294 0
-5034 10297 -10294 0
10297 -10295 0
-5034 -10295 0
-5037 10298 0
10298 -10296 0
-5037 10299 -10296 0
10299 -10297 0
-5037 -10297 0
-5040 10300 0
10300 -10298 0
-5040 10301 -10298 0
10301 -10299 0
-5040 -10299 0
-5043 10302 0
10302 -10300 0
-5043 10303 -10300 0
10303 -10301 0
-5043 -10301 0
-5046 10304 0
10304 -10302 0
-5046 10305 -10302 0
10305 -10303 0
-5046 -10303 0
-5049 10306 0
10306 -10304 0
-5049 10307 -10304 0
10307 -10305 0
-5049 -10305 0
-5052 10308 0
10308 -10306 0
-5052 10309 -10306 0
10309 -10307 0
-5052 -10307 0
-5055 10310 0
10310 -10308 0
-5055 10311 -10308 0
10311 -10309 0
-5055 -10309 0
-5058 10312 0
10312 -10310 0
-5058 10313 -10310 0
10313 -10311 0
-5058 -10311 0
-5061 10314 0
10314 -10312 0
-5061 10315 -10312 0
10315 -10313 0
-5061 -10313 0
-5064 10316 0
10316 -10314 0
-5064 10317 -10314 0
10317 -10315 0
-5064 -10315 0
-5067 10318 0
10318 -10316 0
-5067 10319 -10316 0
10319 -10317 0
-5067 -10317 0
-5070 10320 0
10320 -10318 0
-5070 10321 -10318 0
10321 -10319 0
-5070 -10319 0
-5073 10322 0
10322 -10320 0
-5073 10323 -10320 0
10323 -10321 0
-5073 -10321 0
-5078 10324 0
10324 -10322 0
-5078 10325 -10322 0
10325 -10323 0
-5078 -10323 0
-5081 10326 0
10326 -10324 0
-5081 10327 -10324 0
10327 -10325 0
-5081 -10325 0
-5084 10328 0
10328 -10326 0
-5084 10329 -10326 0
10329 -10327 0
-5084 -10327 0
-5087 10330 0
10330 -10328 0
-5087 10331 -10328 0
10331 -10329 0
-5087 -10329 0
-5090 10332 0
10332 -10330 0
-5090 10333 -10330 0
10333 -10331 0
-5090 -10331 0
-5093 10334 0
10334 -10332 0
-5093 10335 -10332 0
10335 -10333 0
-5093 -10333 0
-5096 10336 0
10336 -10334 0
-5096 10337 -10334 0
10337 -10335 0
-5096 -10335 0
-5099 10338 0
10338 -10336 0
-5099 10339 -10336 0
10339 -10337 0
-5099 -10337 0
-5102 10340 0
10340 -10338 0
-5102 10341 -10338 0
10341 -10339 0
-5102 -10339 0
-5105 10342 0
10342 -10340 0
-5105 10343 -10340 0
10343 -10341 0
-5105 -10341 0
-5108 10344 0
10344 -10342 0
-5108 10345 -10342 0
10345 -10343 0
-5108 -10343 0
-5111 10346 0
10346 -10344 0
-5111 10347 -10344 0
10347 -10345 0
-5111 -10345 0
-5114 10348 0
10348 -10346 0
-5114 10349 -10346 0
10349 -10347 0
-5114 -10347 0
-5117 10350 0
10350 -10348 0
-5117 10351 -10348 0
10351 -10349 0
-5117 -10349 0
-5120 10352 0
10352 -10350 0
-5120 10353 -10350 0
10353 -10351 0
-5120 -10351 0
-5123 10354 0
10354 -10352 0
-5123 10355 -10352 0
10355 -10353 0
-5123 -10353 0
-5128 10356 0
10356 -10354 0
-5128 10357 -10354 0
10357 -10355 0
-5128 -10355 0
-5131 10358 0
10358 -10356 0
-5131 10359 -10356 0
10359 -10357 0
-5131 -10357 0
-5134 10360 0
10360 -10358 0
-5134 10361 -10358 0
10361 -10359 0
-5134 -10359 0
-5137 10362 0
10362 -10360 0
-5137 10363 -10360 0
10363 -10361 0
-5137 -10361 0
-5140 10364 0
10364 -10362 0
-5140 10365 -10362 0
10365 -10363 0
-5140 -10363 0
-5143 10366 0
10366 -10364 0
-5143 10367 -10364 0
10367 -10365 0
-5143 -10365 0
-5146 10368 0
10368 -10366 0
-5146 10369 -10366 0
10369 -10367 0
-5146 -10367 0
-5149 10370 0
10370 -10368 0
-5149 10371 -10368 0
10371 -10369 0
-5149 -10369 0
-5152 10372 0
10372 -10370 0
-5152 10373 -10370 0
10373 -10371 0
-5152 -10371 0
-5155 10374 0
10374 -10372 0
-5155 10375 -10372 0
10375 -10373 0
-5155 -10373 0
-5158 10376 0
10376 -10374 0
-5158 10377 -10374 0
10377 -10375 0
-5158 -10375 0
-5161 10378 0
10378 -10376 0
-5161 10379 -10376 0
10379 -10377 0
-5161 -10377 0
-5164 10380 0
10380 -10378 0
-5164 10381 -10378 0
10381 -10379 0
-5164 -10379 0
-5167 10382 0
10382 -10380 0
-5167 10383 -10380 0
10383 -10381 0
-5167 -10381 0
-5170 10384 0
10384 -10382 0
-5170 10385 -10382 0
10385 -10383 0
-5170 -10383 0
-5173 10386 0
10386 -10384 0
-5173 10387 -10384 0
10387 -10385 0
-5173 -10385 0
-5178 10388 0
10388 -10386 0
-5178 10389 -10386 0
10389 -10387 0
-5178 -10387 0
-5181 10390 0
10390 -10388 0
-5181 10391 -10388 0
10391 -10389 0
-5181 -10389 0
-5184 10392 0
10392 -10390 0
-5184 10393 -10390 0
10393 -10391 0
-5184 -10391 0
-5187 10394 0
10394 -10392 0
-5187 10395 -10392 0
10395 -10393 0
-5187 -10393 0
-5190 10396 0
10396 -10394 0
-5190 10397 -10394 0
10397 -10395 0
-5190 -10395 0
-5193 10398 0
10398 -10396 0
-5193 10399 -10396 0
10399 -10397 0
-5193 -10397 0
-5196 10400 0
10400 -10398 0
-5196 10401 -10398 0
10401 -10399 0
-5196 -10399 0
-5199 10402 0
10402 -10400 0
-5199 10403 -10400 0
10403 -10401 0
-5199 -10401 0
-5202 10404 0
10404 -10402 0
-5202 10405 -10402 0
10405 -10403 0
-5202 -10403 0
-5205 10406 0
10406 -10404 0
-5205 10407 -10404 0
10407 -10405 0
-5205 -10405 0
-5208 10408 0
10408 -10406 0
-5208 10409 -10406 0
10409 -10407 0
-5208 -10407 0
-5211 10410 0
10410 -10408 0
-5211 10411 -10408 0
10411 -10409 0
-5211 -10409 0
-5214 10412 0
10412 -10410 0
-5214 10413 -10410 0
10413 -10411 0
-5214 -10411 0
-5217 10414 0
10414 -10412 0
-5217 10415 -10412 0
10415 -10413 0
-5217 -10413 0
-5220 10416 0
10416 -10414 0
-5220 10417 -10414 0
10417 -10415 0
-5220 -10415 0
-5223 10418 0
10418 -10416 0
-5223 10419 -10416 0
10419 -10417 0
-5223 -10417 0
-5228 10420 0
10420 -10418 0
-5228 10421 -10418 0
10421 -10419 0
-5228 -10419 0
-5231 10422 0
10422 -10420 0
-5231 10423 -10420 0
10423 -10421 0
-5231 -10421 0
-5234 10424 0
10424 -10422 0
-5234 10425 -10422 0
10425 -10423 0
-5234 -10423 0
-5237 10426 0
10426 -10424 0
-5237 10427 -10424 0
10427 -10425 0
-5237 -10425 0
-5240 10428 0
10428 -10426 0
-5240 10429 -10426 0
10429 -10427 0
-5240 -10427 0
-5243 10430 0
10430 -10428 0
-5243 10431 -10428 0
10431 -10429 0
-5243 -10429 0
-5246 10432 0
10432 -10430 0
-5246 10433 -10430 0
10433 -10431 0
-5246 -10431 0
-5249 10434 0
10434 -10432 0
-5249 10435 -10432 0
10435 -10433 0
-5249 -10433 0
-5252 10436 0
10436 -10434 0
-5252 10437 -10434 0
10437 -10435 0
-5252 -10435 0
-5255 10438 0
10438 -10436 0
-5255 10439 -10436 0
10439 -10437 0
-5255 -10437 0
-5258 10440 0
10440 -10438 0
-5258 10441 -10438 0
10441 -10439 0
-5258 -10439 0
-5261 10442 0
10442 -10440 0
-5261 10443 -10440 0
10443 -10441 0
-5261 -10441 0
-5264 10444 0
10444 -10442 0
-5264 10445 -10442 0
10445 -10443 0
-5264 -10443 0
-5267 10446 0
10446 -10444 0
-5267 10447 -10444 0
10447 -10445 0
-5267 -10445 0
-5270 10448 0
10448 -10446 0
-5270 10449 -10446 0
10449 -10447 0
-5270 -10447 0
-5273 10450 0
10450 -10448 0
-5273 10451 -10448 0
10451 -10449 0
-5273 -10449 0
-5276 10452 0
10452 -10450 0
-5276 10453 -10450 0
10453 -10451 0
-5276 -10451 0
-5279 10454 0
10454 -10452 0
-5279 10455 -10452 0
10455 -10453 0
-5279 -10453 0
-5282 10456 0
10456 -10454 0
-5282 10457 -10454 0
10457 -10455 0
-5282 -10455 0
-5285 10458 0
10458 -10456 0
-5285 10459 -10456 0
10459 -10457 0
-5285 -10457 0
-5288 10460 0
10460 -10458 0
-5288 10461 -10458 0
10461 -10459 0
-5288 -10459 0
-5291 10462 0
10462 -10460 0
-5291 10463 -10460 0
10463 -10461 0
-5291 -10461 0
-5294 10464 0
10464 -10462 0
-5294 10465 -10462 0
10465 -10463 0
-5294 -10463 0
